
     Program PWSCF v.7.5 starts on 22Sep2026 at 14:36:24 

     This program is part of the open-source Quantum ESPRESSO suite
     for quantum simulation of materials; please cite
         "P. Giannozzi et al., J. Phys.:Condens. Matter 21 395502 (2009);
         "P. Giannozzi et al., J. Phys.:Condens. Matter 29 465901 (2017);
         "P. Giannozzi et al., J. Chem. Phys. 152 154105 (2020);
          URL http://www.quantum-espresso.org", 
     in publications or presentations arising from this work. More details at
     http://www.quantum-espresso.org/quote

     Parallel version (MPI), running on     8 processors

     MPI processes distributed on     1 nodes
     6406 MiB available memory on the printing compute node when the environment starts

     Waiting for input...
     Reading input from standard input
Warning: card &IONS ignored

     Current dimensions of program PWSCF are:
     Max number of different atomic species (ntypx) = 10
     Max number of k-points (npk) =  40000
     Max angular momentum in pseudopotentials (lmaxx) =  4
     file Ti.pbe-spn-kjpaw_psl.1.0.0.UPF: wavefunction(s)  3S 3P 3D renormalized
     file C.pbe-n-kjpaw_psl.1.0.0.UPF: wavefunction(s)  2S 2P renormalized
     file F.pbe-n-kjpaw_psl.1.0.0.UPF: wavefunction(s)  2S 2P renormalized

     Atomic positions and unit cell read from directory:
     ./tmp/ti2cf2.save/


     R & G space division:  proc/nbgrp/npool/nimage =       8
     Subspace diagonalization in iterative solution of the eigenvalue problem:
     a serial algorithm will be used


     Parallelization info
     --------------------
     sticks:   dense  smooth     PW     G-vecs:    dense   smooth      PW
     Min          92      45     14                14304     5047     880
     Max          94      46     17                14317     5066     889
     Sum         745     367    121               114499    40467    7065

     Using Slab Decomposition



     bravais-lattice index     =            0
     lattice parameter (alat)  =       5.7603  a.u.
     unit-cell volume          =    1183.0597 (a.u.)^3
     number of atoms/cell      =            5
     number of atomic types    =            3
     number of electrons       =        42.00
     number of Kohn-Sham states=           25
     kinetic-energy cutoff     =      40.0000  Ry
     charge density cutoff     =     320.0000  Ry
     Exchange-correlation= SLA  PW   PBX  PBC
                           (   1   4   3   4   0   0   0)

     celldm(1)=   5.760320  celldm(2)=   0.000000  celldm(3)=   0.000000
     celldm(4)=   0.000000  celldm(5)=   0.000000  celldm(6)=   0.000000

     crystal axes: (cart. coord. in units of alat)
               a(1) = (   1.000000   0.000000   0.000000 )  
               a(2) = (  -0.500002   0.866027   0.000000 )  
               a(3) = (   0.000000   0.000000   7.147190 )  

     reciprocal axes: (cart. coord. in units 2 pi/alat)
               b(1) = (  1.000000  0.577351 -0.000000 )  
               b(2) = (  0.000000  1.154698  0.000000 )  
               b(3) = (  0.000000 -0.000000  0.139915 )  


     PseudoPot. # 1 for Ti read from file:
     ../pseudopotential/Ti.pbe-spn-kjpaw_psl.1.0.0.UPF
     MD5 check sum: 01f69b0d8ba4438b2e03ac6ea4af1c0b
     Pseudo is Projector augmented-wave + core cor, Zval = 12.0
     Generated using &quot;atomic&quot; code by A. Dal Corso  v.6.2.2
     Shape of augmentation charge: PSQ
     Using radial grid of 1177 points,  6 beta functions with: 
                l(1) =   0
                l(2) =   0
                l(3) =   1
                l(4) =   1
                l(5) =   2
                l(6) =   2
     Q(r) pseudized with 0 coefficients 


     PseudoPot. # 2 for C  read from file:
     ../pseudopotential/C.pbe-n-kjpaw_psl.1.0.0.UPF
     MD5 check sum: 5f16ad9a65e90284d1d834d4ab3b0f7d
     Pseudo is Projector augmented-wave + core cor, Zval =  4.0
     Generated using &quot;atomic&quot; code by A. Dal Corso  v.6.3
     Shape of augmentation charge: PSQ
     Using radial grid of 1073 points,  4 beta functions with: 
                l(1) =   0
                l(2) =   0
                l(3) =   1
                l(4) =   1
     Q(r) pseudized with 0 coefficients 


     PseudoPot. # 3 for F  read from file:
     ../pseudopotential/F.pbe-n-kjpaw_psl.1.0.0.UPF
     MD5 check sum: 66d718ea72839a4268ab2a9540e8cdd4
     Pseudo is Projector augmented-wave + core cor, Zval =  7.0
     Generated using &quot;atomic&quot; code by A. Dal Corso  v.6.3
     Shape of augmentation charge: PSQ
     Using radial grid of 1105 points,  4 beta functions with: 
                l(1) =   0
                l(2) =   0
                l(3) =   1
                l(4) =   1
     Q(r) pseudized with 0 coefficients 


     atomic species   valence    mass     pseudopotential
     Ti               12.00    47.86700     Ti( 1.00)
     C                 4.00    12.01100     C ( 1.00)
     F                 7.00    18.99800     F ( 1.00)

     No symmetry found



   Cartesian axes

     site n.     atom                  positions (alat units)
         1        Ti     tau(   1) = (  -0.0000003   0.5773513   0.5715047  )
         2        Ti     tau(   2) = (   0.5000011   0.2886759   1.3267197  )
         3        C      tau(   3) = (   0.0000011  -0.0000000   0.9491568  )
         4        F      tau(   4) = (  -0.0000000   0.5773514   1.7353267  )
         5        F      tau(   5) = (   0.5000015   0.2886757   0.1628986  )

     number of k points=    61  Marzari-Vanderbilt smearing, width (Ry)=  0.0200
                       cart. coord. in units 2pi/alat
        k(    1) = (   0.0000000   0.0000000   0.0000000), wk =   0.0327869
        k(    2) = (  -0.0166667   0.0288674   0.0000000), wk =   0.0327869
        k(    3) = (  -0.0333333   0.0577348   0.0000000), wk =   0.0327869
        k(    4) = (  -0.0500000   0.0866023   0.0000000), wk =   0.0327869
        k(    5) = (  -0.0666667   0.1154697   0.0000000), wk =   0.0327869
        k(    6) = (  -0.0833333   0.1443371   0.0000000), wk =   0.0327869
        k(    7) = (  -0.1000000   0.1732045   0.0000000), wk =   0.0327869
        k(    8) = (  -0.1166667   0.2020720   0.0000000), wk =   0.0327869
        k(    9) = (  -0.1333333   0.2309394   0.0000000), wk =   0.0327869
        k(   10) = (  -0.1500000   0.2598068   0.0000000), wk =   0.0327869
        k(   11) = (  -0.1666667   0.2886742   0.0000000), wk =   0.0327869
        k(   12) = (  -0.1833333   0.3175417   0.0000000), wk =   0.0327869
        k(   13) = (  -0.2000000   0.3464091   0.0000000), wk =   0.0327869
        k(   14) = (  -0.2166667   0.3752765   0.0000000), wk =   0.0327869
        k(   15) = (  -0.2333333   0.4041439   0.0000000), wk =   0.0327869
        k(   16) = (  -0.2500000   0.4330113   0.0000000), wk =   0.0327869
        k(   17) = (  -0.2666667   0.4618788   0.0000000), wk =   0.0327869
        k(   18) = (  -0.2833333   0.4907462   0.0000000), wk =   0.0327869
        k(   19) = (  -0.3000000   0.5196136   0.0000000), wk =   0.0327869
        k(   20) = (  -0.3166667   0.5484810   0.0000000), wk =   0.0327869
        k(   21) = (  -0.3333333   0.5773485   0.0000000), wk =   0.0327869
        k(   22) = (  -0.3000000   0.5773485   0.0000000), wk =   0.0327869
        k(   23) = (  -0.2666667   0.5773486   0.0000000), wk =   0.0327869
        k(   24) = (  -0.2333333   0.5773486   0.0000000), wk =   0.0327869
        k(   25) = (  -0.2000000   0.5773487   0.0000000), wk =   0.0327869
        k(   26) = (  -0.1666667   0.5773488   0.0000000), wk =   0.0327869
        k(   27) = (  -0.1333333   0.5773488   0.0000000), wk =   0.0327869
        k(   28) = (  -0.1000000   0.5773489   0.0000000), wk =   0.0327869
        k(   29) = (  -0.0666667   0.5773490   0.0000000), wk =   0.0327869
        k(   30) = (  -0.0333333   0.5773490   0.0000000), wk =   0.0327869
        k(   31) = (   0.0000000   0.5773491   0.0000000), wk =   0.0327869
        k(   32) = (   0.0333333   0.5773492   0.0000000), wk =   0.0327869
        k(   33) = (   0.0666667   0.5773492   0.0000000), wk =   0.0327869
        k(   34) = (   0.1000000   0.5773493   0.0000000), wk =   0.0327869
        k(   35) = (   0.1333333   0.5773493   0.0000000), wk =   0.0327869
        k(   36) = (   0.1666667   0.5773494   0.0000000), wk =   0.0327869
        k(   37) = (   0.2000000   0.5773495   0.0000000), wk =   0.0327869
        k(   38) = (   0.2333333   0.5773495   0.0000000), wk =   0.0327869
        k(   39) = (   0.2666667   0.5773496   0.0000000), wk =   0.0327869
        k(   40) = (   0.3000000   0.5773497   0.0000000), wk =   0.0327869
        k(   41) = (   0.3333333   0.5773497   0.0000000), wk =   0.0327869
        k(   42) = (   0.3166667   0.5484822   0.0000000), wk =   0.0327869
        k(   43) = (   0.3000000   0.5196148   0.0000000), wk =   0.0327869
        k(   44) = (   0.2833333   0.4907473   0.0000000), wk =   0.0327869
        k(   45) = (   0.2666667   0.4618798   0.0000000), wk =   0.0327869
        k(   46) = (   0.2500000   0.4330123   0.0000000), wk =   0.0327869
        k(   47) = (   0.2333333   0.4041448   0.0000000), wk =   0.0327869
        k(   48) = (   0.2166667   0.3752773   0.0000000), wk =   0.0327869
        k(   49) = (   0.2000000   0.3464098   0.0000000), wk =   0.0327869
        k(   50) = (   0.1833333   0.3175423   0.0000000), wk =   0.0327869
        k(   51) = (   0.1666667   0.2886749   0.0000000), wk =   0.0327869
        k(   52) = (   0.1500000   0.2598074   0.0000000), wk =   0.0327869
        k(   53) = (   0.1333333   0.2309399   0.0000000), wk =   0.0327869
        k(   54) = (   0.1166667   0.2020724   0.0000000), wk =   0.0327869
        k(   55) = (   0.1000000   0.1732049   0.0000000), wk =   0.0327869
        k(   56) = (   0.0833333   0.1443374   0.0000000), wk =   0.0327869
        k(   57) = (   0.0666667   0.1154699   0.0000000), wk =   0.0327869
        k(   58) = (   0.0500000   0.0866025   0.0000000), wk =   0.0327869
        k(   59) = (   0.0333333   0.0577350   0.0000000), wk =   0.0327869
        k(   60) = (   0.0166667   0.0288675   0.0000000), wk =   0.0327869
        k(   61) = (   0.0000000   0.0000000   0.0000000), wk =   0.0327869

     Dense  grid:   114499 G-vectors     FFT dimensions: (  36,  36, 240)

     Smooth grid:    40467 G-vectors     FFT dimensions: (  24,  24, 180)

     Estimated max dynamical RAM per process >      51.61 MB

     Estimated total dynamical RAM >     412.89 MB

     Check: negative core charge=   -0.000005

     The potential is recalculated from file :
     ./tmp/ti2cf2.save/charge-density


     negative rho (up, down):  2.485E-03 0.000E+00
     Starting wfcs are   32 randomized atomic wfcs
     Checking if some PAW data can be deallocated... 

     Band Structure Calculation
     Davidson diagonalization with overlap
     c_bands:  2 eigenvalues not converged
     c_bands:  1 eigenvalues not converged

     ethr =  2.38E-11,  avg # of iterations = 70.6

     total cpu time spent up to now is       43.2 secs

     End of band structure calculation

          k = 0.0000 0.0000 0.0000 (  5033 PWs)   bands (ev):

   -57.1787 -57.1092 -33.7276 -33.3604 -33.2350 -33.2350 -33.1873 -33.1872
   -24.6883 -24.6649 -11.3399  -7.1114  -6.0538  -6.0164  -6.0164  -5.8795
    -5.8795  -3.3049  -2.0561  -2.0561   0.4923   0.4923   0.7040   2.0898
     2.0898

          k =-0.0167 0.0289 0.0000 (  5033 PWs)   bands (ev):

   -57.1781 -57.1089 -33.7262 -33.3617 -33.2372 -33.2362 -33.1907 -33.1876
   -24.6865 -24.6634 -11.3311  -7.1011  -6.1226  -6.0160  -5.9541  -5.8962
    -5.8811  -3.2979  -2.0898  -2.0638   0.4798   0.5058   0.7122   2.0779
     2.0860

          k =-0.0333 0.0577 0.0000 (  5031 PWs)   bands (ev):

   -57.1765 -57.1080 -33.7220 -33.3659 -33.2432 -33.2400 -33.2007 -33.1888
   -24.6811 -24.6590 -11.3048  -7.0705  -6.2092  -6.0161  -5.9416  -5.8890
    -5.8840  -3.2791  -2.1843  -2.0858   0.4457   0.5324   0.7472   2.0543
     2.0741

          k =-0.0500 0.0866 0.0000 (  5047 PWs)   bands (ev):

   -57.1738 -57.1065 -33.7152 -33.3737 -33.2516 -33.2478 -33.2153 -33.1913
   -24.6724 -24.6520 -11.2617  -7.0212  -6.2940  -6.0353  -5.9940  -5.8942
    -5.8365  -3.2523  -2.3257  -2.1242   0.3975   0.5409   0.8303   2.0306
     2.0560

          k =-0.0667 0.1155 0.0000 (  5039 PWs)   bands (ev):

   -57.1701 -57.1046 -33.7059 -33.3860 -33.2627 -33.2605 -33.2304 -33.1952
   -24.6608 -24.6425 -11.2026  -6.9553  -6.3722  -6.1181  -6.0019  -5.9089
    -5.8038  -3.2218  -2.4967  -2.1781   0.3472   0.5289   0.9623   2.0201
     2.0391

          k =-0.0833 0.1443 0.0000 (  5027 PWs)   bands (ev):

   -57.1655 -57.1022 -33.6946 -33.4035 -33.2869 -33.2684 -33.2429 -33.2008
   -24.6467 -24.6310 -11.1290  -6.8759  -6.4407  -6.2217  -6.0029  -5.9333
    -5.7907  -3.1916  -2.6818  -2.2485   0.3000   0.5049   1.1262   2.0294
     2.0305

          k =-0.1000 0.1732 0.0000 (  5035 PWs)   bands (ev):

   -57.1602 -57.0995 -33.6816 -33.4258 -33.3174 -33.2747 -33.2542 -33.2080
   -24.6308 -24.6178 -11.0425  -6.7872  -6.4978  -6.3317  -6.0063  -5.9719
    -5.7954  -3.1655  -2.8700  -2.3334   0.2612   0.4761   1.3101   2.0323
     2.0644

          k =-0.1167 0.2021 0.0000 (  5052 PWs)   bands (ev):

   -57.1543 -57.0966 -33.6677 -33.4517 -33.3508 -33.2797 -33.2660 -33.2165
   -24.6137 -24.6035 -10.9449  -6.6929  -6.5423  -6.4417  -6.0284  -6.0142
    -5.8137  -3.1440  -3.0521  -2.4309   0.2361   0.4495   1.5027   2.0499
     2.1239

          k =-0.1333 0.2309 0.0000 (  5044 PWs)   bands (ev):

   -57.1478 -57.0935 -33.6535 -33.4796 -33.3846 -33.2842 -33.2789 -33.2262
   -24.5960 -24.5885 -10.8381  -6.5988  -6.5752  -6.5442  -6.1018  -6.0280
    -5.8415  -3.2225  -3.1265  -2.5363   0.2296   0.4294   1.6960   2.0907
     2.2080

          k =-0.1500 0.2598 0.0000 (  5032 PWs)   bands (ev):

   -57.1411 -57.0906 -33.6404 -33.5078 -33.4162 -33.2930 -33.2891 -33.2367
   -24.5782 -24.5732 -10.7246  -6.6423  -6.6001  -6.5034  -6.1855  -6.0482
    -5.8770  -3.3783  -3.1115  -2.6474   0.2424   0.4188   1.8589   2.1708
     2.2982

          k =-0.1667 0.2887 0.0000 (  5048 PWs)   bands (ev):

   -57.1342 -57.0878 -33.6299 -33.5347 -33.4432 -33.3084 -33.2953 -33.2473
   -24.5609 -24.5580 -10.6069  -6.7258  -6.6266  -6.4188  -6.2656  -6.0753
    -5.9205  -3.5189  -3.0983  -2.7624   0.2746   0.4169   1.9619   2.2961
     2.3668

          k =-0.1833 0.3175 0.0000 (  5042 PWs)   bands (ev):

   -57.1273 -57.0852 -33.6237 -33.5591 -33.4629 -33.3248 -33.3037 -33.2576
   -24.5446 -24.5434 -10.4876  -6.7961  -6.6677  -6.3440  -6.3214  -6.1082
    -5.9716  -3.6431  -3.0856  -2.8761   0.3303   0.4282   2.0226   2.3877
     2.4080

          k =-0.2000 0.3464 0.0000 (  5042 PWs)   bands (ev):

   -57.1206 -57.0830 -33.6231 -33.5799 -33.4741 -33.3415 -33.3147 -33.2672
   -24.5299 -24.5293 -10.3699  -6.8523  -6.7303  -6.3407  -6.2816  -6.1459
    -6.0308  -3.7506  -3.0853  -2.9766   0.4060   0.4507   2.0652   2.4263
     2.4418

          k =-0.2167 0.3753 0.0000 (  5062 PWs)   bands (ev):

   -57.1142 -57.0813 -33.6269 -33.5962 -33.4783 -33.3574 -33.3281 -33.2762
   -24.5173 -24.5159 -10.2574  -6.8939  -6.8037  -6.3299  -6.2351  -6.1850
    -6.0969  -3.8407  -3.1507  -3.0103   0.4853   0.5008   2.1010   2.4299
     2.4712

          k =-0.2333 0.4041 0.0000 (  5060 PWs)   bands (ev):

   -57.1082 -57.0801 -33.6319 -33.6076 -33.4800 -33.3706 -33.3433 -33.2851
   -24.5061 -24.5042 -10.1535  -6.9209  -6.8706  -6.3036  -6.2414  -6.1861
    -6.1673  -3.9118  -3.2598  -2.9979   0.5322   0.6153   2.1357   2.4330
     2.4742

          k =-0.2500 0.4330 0.0000 (  5064 PWs)   bands (ev):

   -57.1027 -57.0795 -33.6353 -33.6139 -33.4846 -33.3784 -33.3593 -33.2943
   -24.4966 -24.4944 -10.0622  -6.9339  -6.9195  -6.2874  -6.2869  -6.2243
    -6.1617  -3.9630  -3.3743  -2.9796   0.5901   0.7456   2.1634   2.4342
     2.4418

          k =-0.2667 0.4619 0.0000 (  5050 PWs)   bands (ev):

   -57.0978 -57.0794 -33.6349 -33.6155 -33.4953 -33.3791 -33.3751 -33.3041
   -24.4887 -24.4865  -9.9863  -6.9444  -6.9340  -6.3394  -6.3365  -6.2136
    -6.1438  -3.9923  -3.4878  -2.9620   0.6590   0.8901   2.1715   2.3873
     2.4370

          k =-0.2833 0.4907 0.0000 (  5048 PWs)   bands (ev):

   -57.0935 -57.0799 -33.6299 -33.6131 -33.5120 -33.3898 -33.3740 -33.3145
   -24.4825 -24.4806  -9.9283  -6.9445  -6.9236  -6.4105  -6.3880  -6.1845
    -6.1327  -3.9990  -3.5970  -2.9483   0.7361   1.0445   2.1048   2.3583
     2.4424

          k =-0.3000 0.5196 0.0000 (  5042 PWs)   bands (ev):

   -57.0899 -57.0810 -33.6203 -33.6082 -33.5322 -33.4020 -33.3656 -33.3254
   -24.4781 -24.4767  -9.8885  -6.9252  -6.9055  -6.4732  -6.4392  -6.1596
    -6.1272  -3.9818  -3.6995  -2.9392   0.8192   1.2075   1.9426   2.3815
     2.4527

          k =-0.3167 0.5485 0.0000 (  5022 PWs)   bands (ev):

   -57.0869 -57.0825 -33.6072 -33.6026 -33.5530 -33.4101 -33.3560 -33.3363
   -24.4754 -24.4745  -9.8662  -6.8997  -6.8858  -6.5138  -6.4853  -6.1419
    -6.1268  -3.9407  -3.7926  -2.9345   0.8971   1.3752   1.7378   2.4268
     2.4691

          k =-0.3333 0.5773 0.0000 (  5022 PWs)   bands (ev):

   -57.0848 -57.0840 -33.5991 -33.5987 -33.5653 -33.4128 -33.3466 -33.3463
   -24.4745 -24.4740  -9.8595  -6.8878  -6.8758  -6.5169  -6.5164  -6.1318
    -6.1313  -3.8760  -3.8754  -2.9330   0.9364   1.5418   1.5420   2.4780
     2.4782

          k =-0.3000 0.5773 0.0000 (  5026 PWs)   bands (ev):

   -57.0867 -57.0826 -33.6120 -33.5987 -33.5524 -33.4107 -33.3541 -33.3375
   -24.4754 -24.4745  -9.8653  -6.8994  -6.8900  -6.5194  -6.4786  -6.1412
    -6.1266  -3.9466  -3.7866  -2.9339   0.8641   1.4444   1.7021   2.4117
     2.5169

          k =-0.2667 0.5773 0.0000 (  5046 PWs)   bands (ev):

   -57.0891 -57.0813 -33.6329 -33.6026 -33.5284 -33.4075 -33.3554 -33.3298
   -24.4776 -24.4760  -9.8805  -6.9334  -6.9257  -6.4893  -6.4165  -6.1556
    -6.1243  -4.0062  -3.6735  -2.9348   0.6524   1.4820   1.8467   2.3624
     2.5455

          k =-0.2333 0.5773 0.0000 (  5042 PWs)   bands (ev):

   -57.0916 -57.0804 -33.6538 -33.6095 -33.5012 -33.4090 -33.3462 -33.3235
   -24.4808 -24.4785  -9.9021  -6.9974  -6.9542  -6.4349  -6.3507  -6.1731
    -6.1210  -4.0548  -3.5366  -2.9343   0.3827   1.5851   1.9619   2.3499
     2.5829

          k =-0.2000 0.5773 0.0000 (  5054 PWs)   bands (ev):

   -57.0941 -57.0799 -33.6734 -33.6181 -33.4731 -33.4150 -33.3288 -33.3188
   -24.4847 -24.4816  -9.9274  -7.0706  -6.9788  -6.3688  -6.2954  -6.1914
    -6.1144  -4.0943  -3.3767  -2.9322   0.0927   1.7127   2.0306   2.3852
     2.6254

          k =-0.1667 0.5773 0.0000 (  5048 PWs)   bands (ev):

   -57.0965 -57.0796 -33.6908 -33.6271 -33.4455 -33.4225 -33.3159 -33.3083
   -24.4887 -24.4849  -9.9536  -7.1445  -6.9965  -6.3038  -6.2552  -6.2044
    -6.1042  -4.1262  -3.1956  -2.9284  -0.1975   1.8531   2.0558   2.4627
     2.6785

          k =-0.1333 0.5773 0.0000 (  5062 PWs)   bands (ev):

   -57.0985 -57.0795 -33.7056 -33.6355 -33.4298 -33.4195 -33.3150 -33.2881
   -24.4926 -24.4883  -9.9788  -7.2135  -7.0078  -6.2672  -6.2279  -6.1901
    -6.0952  -4.1521  -2.9991  -2.9235  -0.4799   1.9966   2.0578   2.5552
     2.7332

          k =-0.1000 0.5773 0.0000 (  5058 PWs)   bands (ev):

   -57.1002 -57.0795 -33.7175 -33.6426 -33.4360 -33.3962 -33.3162 -33.2704
   -24.4960 -24.4913 -10.0007  -7.2721  -7.0138  -6.2697  -6.2067  -6.1418
    -6.0922  -4.1726  -2.9181  -2.7956  -0.7453   2.0532   2.1408   2.6468
     2.7382

          k =-0.0667 0.5773 0.0000 (  5074 PWs)   bands (ev):

   -57.1015 -57.0795 -33.7262 -33.6480 -33.4407 -33.3764 -33.3194 -33.2567
   -24.4987 -24.4936 -10.0177  -7.3169  -7.0163  -6.2791  -6.1872  -6.0978
    -6.0965  -4.1879  -2.9137  -2.6019  -0.9818   2.0442   2.2714   2.7220
     2.7231

          k =-0.0333 0.5773 0.0000 (  5070 PWs)   bands (ev):

   -57.1023 -57.0796 -33.7315 -33.6513 -33.4436 -33.3615 -33.3241 -33.2481
   -24.5005 -24.4951 -10.0285  -7.3448  -7.0169  -6.2860  -6.1690  -6.1087
    -6.0660  -4.1975  -2.9102  -2.4476  -1.1590   2.0382   2.3770   2.6949
     2.7742

          k = 0.0000 0.5773 0.0000 (  5064 PWs)   bands (ev):

   -57.1026 -57.0796 -33.7333 -33.6525 -33.4446 -33.3551 -33.3270 -33.2452
   -24.5010 -24.4956 -10.0321  -7.3544  -7.0170  -6.2884  -6.1596  -6.1158
    -6.0552  -4.2006  -2.9091  -2.3850  -1.2285   2.0362   2.4215   2.6775
     2.7949

          k = 0.0333 0.5773 0.0000 (  5070 PWs)   bands (ev):

   -57.1023 -57.0796 -33.7315 -33.6513 -33.4436 -33.3615 -33.3241 -33.2481
   -24.5005 -24.4951 -10.0285  -7.3448  -7.0169  -6.2860  -6.1690  -6.1087
    -6.0660  -4.1975  -2.9102  -2.4476  -1.1590   2.0382   2.3770   2.6949
     2.7742

          k = 0.0667 0.5773 0.0000 (  5074 PWs)   bands (ev):

   -57.1015 -57.0795 -33.7262 -33.6480 -33.4407 -33.3764 -33.3194 -33.2567
   -24.4987 -24.4936 -10.0177  -7.3169  -7.0163  -6.2791  -6.1872  -6.0978
    -6.0965  -4.1879  -2.9137  -2.6019  -0.9818   2.0442   2.2714   2.7220
     2.7231

          k = 0.1000 0.5773 0.0000 (  5058 PWs)   bands (ev):

   -57.1002 -57.0795 -33.7175 -33.6426 -33.4360 -33.3962 -33.3162 -33.2704
   -24.4960 -24.4913 -10.0007  -7.2721  -7.0138  -6.2697  -6.2067  -6.1418
    -6.0922  -4.1726  -2.9181  -2.7956  -0.7453   2.0532   2.1408   2.6468
     2.7382

          k = 0.1333 0.5773 0.0000 (  5062 PWs)   bands (ev):

   -57.0985 -57.0795 -33.7056 -33.6355 -33.4298 -33.4195 -33.3150 -33.2881
   -24.4926 -24.4883  -9.9788  -7.2135  -7.0078  -6.2672  -6.2279  -6.1901
    -6.0952  -4.1521  -2.9991  -2.9235  -0.4799   1.9966   2.0578   2.5552
     2.7332

          k = 0.1667 0.5773 0.0000 (  5048 PWs)   bands (ev):

   -57.0965 -57.0796 -33.6908 -33.6271 -33.4455 -33.4225 -33.3159 -33.3083
   -24.4887 -24.4849  -9.9536  -7.1445  -6.9965  -6.3038  -6.2552  -6.2044
    -6.1042  -4.1262  -3.1956  -2.9284  -0.1975   1.8531   2.0558   2.4627
     2.6785

          k = 0.2000 0.5773 0.0000 (  5054 PWs)   bands (ev):

   -57.0941 -57.0799 -33.6734 -33.6181 -33.4731 -33.4150 -33.3288 -33.3188
   -24.4847 -24.4816  -9.9274  -7.0706  -6.9788  -6.3688  -6.2954  -6.1914
    -6.1144  -4.0943  -3.3767  -2.9322   0.0927   1.7127   2.0306   2.3852
     2.6254

          k = 0.2333 0.5773 0.0000 (  5042 PWs)   bands (ev):

   -57.0916 -57.0804 -33.6538 -33.6095 -33.5012 -33.4090 -33.3462 -33.3235
   -24.4808 -24.4785  -9.9021  -6.9974  -6.9542  -6.4349  -6.3507  -6.1731
    -6.1210  -4.0548  -3.5366  -2.9343   0.3827   1.5851   1.9619   2.3499
     2.5829

          k = 0.2667 0.5773 0.0000 (  5046 PWs)   bands (ev):

   -57.0891 -57.0813 -33.6329 -33.6026 -33.5284 -33.4075 -33.3554 -33.3298
   -24.4776 -24.4760  -9.8805  -6.9334  -6.9257  -6.4893  -6.4165  -6.1556
    -6.1243  -4.0062  -3.6735  -2.9348   0.6524   1.4820   1.8467   2.3624
     2.5455

          k = 0.3000 0.5773 0.0000 (  5026 PWs)   bands (ev):

   -57.0867 -57.0826 -33.6120 -33.5987 -33.5524 -33.4107 -33.3541 -33.3375
   -24.4754 -24.4745  -9.8653  -6.8994  -6.8900  -6.5194  -6.4786  -6.1412
    -6.1266  -3.9466  -3.7866  -2.9339   0.8641   1.4444   1.7021   2.4117
     2.5169

          k = 0.3333 0.5773 0.0000 (  5022 PWs)   bands (ev):

   -57.0848 -57.0840 -33.5991 -33.5987 -33.5653 -33.4128 -33.3466 -33.3463
   -24.4745 -24.4740  -9.8595  -6.8878  -6.8758  -6.5169  -6.5164  -6.1318
    -6.1313  -3.8760  -3.8754  -2.9330   0.9364   1.5418   1.5420   2.4780
     2.4782

          k = 0.3167 0.5485 0.0000 (  5022 PWs)   bands (ev):

   -57.0869 -57.0825 -33.6072 -33.6026 -33.5530 -33.4101 -33.3560 -33.3363
   -24.4754 -24.4745  -9.8662  -6.8997  -6.8858  -6.5138  -6.4853  -6.1419
    -6.1268  -3.9407  -3.7926  -2.9345   0.8971   1.3751   1.7378   2.4268
     2.4691

          k = 0.3000 0.5196 0.0000 (  5042 PWs)   bands (ev):

   -57.0899 -57.0810 -33.6203 -33.6082 -33.5322 -33.4019 -33.3656 -33.3254
   -24.4781 -24.4767  -9.8885  -6.9252  -6.9055  -6.4732  -6.4392  -6.1596
    -6.1272  -3.9818  -3.6995  -2.9392   0.8192   1.2075   1.9427   2.3815
     2.4527

          k = 0.2833 0.4907 0.0000 (  5048 PWs)   bands (ev):

   -57.0935 -57.0799 -33.6299 -33.6131 -33.5120 -33.3898 -33.3740 -33.3145
   -24.4825 -24.4806  -9.9283  -6.9445  -6.9236  -6.4105  -6.3880  -6.1845
    -6.1327  -3.9990  -3.5970  -2.9483   0.7361   1.0445   2.1048   2.3584
     2.4424

          k = 0.2667 0.4619 0.0000 (  5050 PWs)   bands (ev):

   -57.0978 -57.0794 -33.6349 -33.6155 -33.4953 -33.3791 -33.3751 -33.3041
   -24.4887 -24.4865  -9.9863  -6.9444  -6.9340  -6.3394  -6.3364  -6.2136
    -6.1438  -3.9923  -3.4878  -2.9620   0.6590   0.8901   2.1715   2.3873
     2.4370

          k = 0.2500 0.4330 0.0000 (  5064 PWs)   bands (ev):

   -57.1027 -57.0795 -33.6353 -33.6139 -33.4846 -33.3784 -33.3593 -33.2943
   -24.4966 -24.4944 -10.0622  -6.9339  -6.9196  -6.2874  -6.2869  -6.2243
    -6.1617  -3.9630  -3.3743  -2.9796   0.5900   0.7456   2.1634   2.4342
     2.4418

          k = 0.2333 0.4041 0.0000 (  5060 PWs)   bands (ev):

   -57.1082 -57.0801 -33.6319 -33.6076 -33.4800 -33.3706 -33.3433 -33.2851
   -24.5061 -24.5042 -10.1535  -6.9209  -6.8706  -6.3036  -6.2414  -6.1861
    -6.1673  -3.9118  -3.2598  -2.9979   0.5322   0.6153   2.1357   2.4330
     2.4742

          k = 0.2167 0.3753 0.0000 (  5062 PWs)   bands (ev):

   -57.1142 -57.0813 -33.6269 -33.5962 -33.4783 -33.3574 -33.3281 -33.2762
   -24.5173 -24.5159 -10.2574  -6.8939  -6.8037  -6.3299  -6.2351  -6.1850
    -6.0969  -3.8407  -3.1507  -3.0103   0.4853   0.5008   2.1010   2.4299
     2.4712

          k = 0.2000 0.3464 0.0000 (  5042 PWs)   bands (ev):

   -57.1206 -57.0830 -33.6231 -33.5799 -33.4741 -33.3415 -33.3147 -33.2672
   -24.5299 -24.5293 -10.3699  -6.8523  -6.7303  -6.3407  -6.2816  -6.1459
    -6.0308  -3.7506  -3.0853  -2.9766   0.4059   0.4507   2.0652   2.4263
     2.4418

          k = 0.1833 0.3175 0.0000 (  5042 PWs)   bands (ev):

   -57.1273 -57.0852 -33.6237 -33.5591 -33.4629 -33.3248 -33.3037 -33.2576
   -24.5446 -24.5434 -10.4876  -6.7961  -6.6677  -6.3440  -6.3214  -6.1082
    -5.9716  -3.6431  -3.0856  -2.8761   0.3303   0.4281   2.0227   2.3877
     2.4080

          k = 0.1667 0.2887 0.0000 (  5048 PWs)   bands (ev):

   -57.1342 -57.0878 -33.6299 -33.5347 -33.4432 -33.3084 -33.2953 -33.2473
   -24.5609 -24.5580 -10.6069  -6.7258  -6.6266  -6.4188  -6.2656  -6.0753
    -5.9205  -3.5189  -3.0983  -2.7624   0.2746   0.4169   1.9619   2.2961
     2.3668

          k = 0.1500 0.2598 0.0000 (  5032 PWs)   bands (ev):

   -57.1411 -57.0906 -33.6404 -33.5078 -33.4162 -33.2930 -33.2891 -33.2367
   -24.5782 -24.5732 -10.7246  -6.6423  -6.6001  -6.5034  -6.1855  -6.0482
    -5.8770  -3.3783  -3.1116  -2.6475   0.2424   0.4188   1.8589   2.1708
     2.2982

          k = 0.1333 0.2309 0.0000 (  5044 PWs)   bands (ev):

   -57.1478 -57.0935 -33.6535 -33.4796 -33.3846 -33.2842 -33.2789 -33.2262
   -24.5960 -24.5885 -10.8381  -6.5988  -6.5752  -6.5442  -6.1018  -6.0280
    -5.8415  -3.2225  -3.1265  -2.5364   0.2296   0.4294   1.6960   2.0907
     2.2080

          k = 0.1167 0.2021 0.0000 (  5052 PWs)   bands (ev):

   -57.1543 -57.0966 -33.6677 -33.4517 -33.3508 -33.2797 -33.2660 -33.2165
   -24.6137 -24.6035 -10.9449  -6.6929  -6.5423  -6.4417  -6.0284  -6.0142
    -5.8137  -3.1440  -3.0521  -2.4309   0.2361   0.4495   1.5028   2.0500
     2.1239

          k = 0.1000 0.1732 0.0000 (  5035 PWs)   bands (ev):

   -57.1602 -57.0995 -33.6816 -33.4258 -33.3174 -33.2747 -33.2542 -33.2080
   -24.6308 -24.6178 -11.0425  -6.7872  -6.4978  -6.3317  -6.0063  -5.9719
    -5.7954  -3.1655  -2.8700  -2.3334   0.2612   0.4761   1.3101   2.0323
     2.0644

          k = 0.0833 0.1443 0.0000 (  5027 PWs)   bands (ev):

   -57.1655 -57.1022 -33.6946 -33.4035 -33.2869 -33.2684 -33.2429 -33.2008
   -24.6467 -24.6310 -11.1290  -6.8759  -6.4407  -6.2217  -6.0029  -5.9333
    -5.7907  -3.1916  -2.6818  -2.2485   0.3000   0.5049   1.1262   2.0294
     2.0305

          k = 0.0667 0.1155 0.0000 (  5039 PWs)   bands (ev):

   -57.1701 -57.1046 -33.7059 -33.3860 -33.2627 -33.2605 -33.2304 -33.1952
   -24.6608 -24.6425 -11.2026  -6.9553  -6.3722  -6.1181  -6.0019  -5.9089
    -5.8038  -3.2218  -2.4967  -2.1781   0.3472   0.5289   0.9623   2.0202
     2.0391

          k = 0.0500 0.0866 0.0000 (  5047 PWs)   bands (ev):

   -57.1738 -57.1065 -33.7152 -33.3737 -33.2516 -33.2478 -33.2153 -33.1913
   -24.6724 -24.6520 -11.2617  -7.0212  -6.2940  -6.0353  -5.9940  -5.8942
    -5.8365  -3.2523  -2.3257  -2.1243   0.3976   0.5409   0.8303   2.0306
     2.0560

          k = 0.0333 0.0577 0.0000 (  5031 PWs)   bands (ev):

   -57.1765 -57.1080 -33.7220 -33.3659 -33.2432 -33.2400 -33.2007 -33.1888
   -24.6811 -24.6590 -11.3048  -7.0705  -6.2092  -6.0161  -5.9416  -5.8890
    -5.8840  -3.2791  -2.1843  -2.0858   0.4457   0.5324   0.7472   2.0543
     2.0741

          k = 0.0167 0.0289 0.0000 (  5033 PWs)   bands (ev):

   -57.1781 -57.1089 -33.7262 -33.3617 -33.2372 -33.2362 -33.1907 -33.1876
   -24.6865 -24.6634 -11.3311  -7.1011  -6.1226  -6.0160  -5.9541  -5.8962
    -5.8811  -3.2979  -2.0898  -2.0638   0.4798   0.5058   0.7122   2.0779
     2.0860

          k = 0.0000 0.0000 0.0000 (  5033 PWs)   bands (ev):

   -57.1787 -57.1092 -33.7276 -33.3604 -33.2350 -33.2350 -33.1873 -33.1872
   -24.6883 -24.6649 -11.3399  -7.1114  -6.0538  -6.0164  -6.0164  -5.8795
    -5.8795  -3.3049  -2.0561  -2.0561   0.4923   0.4923   0.7040   2.0898
     2.0898

     Writing all to output data dir ./tmp/ti2cf2.save/ :
     XML data file, pseudopotentials, collected wavefunctions

     init_run     :      0.83s CPU      0.85s WALL (       1 calls)
     electrons    :     41.38s CPU     42.13s WALL (       1 calls)

     Called by init_run:
     wfcinit      :      0.00s CPU      0.00s WALL (       1 calls)
     potinit      :      0.35s CPU      0.33s WALL (       1 calls)
     hinit0       :      0.41s CPU      0.39s WALL (       1 calls)

     Called by electrons:
     c_bands      :     41.38s CPU     42.13s WALL (       1 calls)
     v_of_rho     :      0.02s CPU      0.02s WALL (       1 calls)
     newd         :      0.06s CPU      0.10s WALL (       1 calls)
     PAW_pot      :      0.09s CPU      0.09s WALL (       1 calls)

     Called by c_bands:
     init_us_2    :      0.02s CPU      0.02s WALL (      61 calls)
     cegterg      :     40.07s CPU     40.84s WALL (     240 calls)

     Called by *egterg:
     cdiaghg      :      3.02s CPU      2.85s WALL (    4370 calls)
     h_psi        :     18.13s CPU     20.35s WALL (    4610 calls)
     s_psi        :      2.70s CPU      2.55s WALL (    4610 calls)
     g_psi        :      0.07s CPU      0.06s WALL (    4309 calls)

     Called by h_psi:
     h_psi:calbec :      3.64s CPU      3.58s WALL (    4610 calls)
     vloc_psi     :     11.75s CPU     14.12s WALL (    4610 calls)
                                        0.00s GPU  (    4610 calls)
     add_vuspsi   :      2.67s CPU      2.57s WALL (    4610 calls)

     General routines
     calbec       :      3.63s CPU      3.58s WALL (    4610 calls)
     fft          :      0.34s CPU      0.31s WALL (      13 calls)
     ffts         :      0.23s CPU      0.21s WALL (       1 calls)
     fftw         :     10.85s CPU     13.25s WALL (   92952 calls)
     interpolate  :      0.23s CPU      0.21s WALL (       1 calls)
     davcio       :      0.02s CPU      0.02s WALL (     122 calls)

     Parallel routines

     PWSCF        :     42.48s CPU     43.39s WALL


   This run was terminated on:  14:37: 8  22Sep2026            

=------------------------------------------------------------------------------=
   JOB DONE.
=------------------------------------------------------------------------------=
