
     Program PWSCF v.7.5 starts on 24Sep2026 at 16: 7:42 

     This program is part of the open-source Quantum ESPRESSO suite
     for quantum simulation of materials; please cite
         "P. Giannozzi et al., J. Phys.:Condens. Matter 21 395502 (2009);
         "P. Giannozzi et al., J. Phys.:Condens. Matter 29 465901 (2017);
         "P. Giannozzi et al., J. Chem. Phys. 152 154105 (2020);
          URL http://www.quantum-espresso.org", 
     in publications or presentations arising from this work. More details at
     http://www.quantum-espresso.org/quote

     Parallel version (MPI), running on     4 processors

     MPI processes distributed on     1 nodes
     6551 MiB available memory on the printing compute node when the environment starts

     Waiting for input...
     Reading input from standard input
Warning: card &IONS ignored

     Current dimensions of program PWSCF are:
     Max number of different atomic species (ntypx) = 10
     Max number of k-points (npk) =  40000
     Max angular momentum in pseudopotentials (lmaxx) =  4

     Atomic positions and unit cell read from directory:
     ./tmp/ti2cf2_eps.save/


     R & G space division:  proc/nbgrp/npool/nimage =       4
     Subspace diagonalization in iterative solution of the eigenvalue problem:
     a serial algorithm will be used


     Parallelization info
     --------------------
     sticks:   dense  smooth     PW     G-vecs:    dense   smooth      PW
     Min         186      91     30                28620    10110    2018
     Max         187      92     31                28631    10122    2049
     Sum         745     367    121               114499    40467    8113

     Using Slab Decomposition



     bravais-lattice index     =            0
     lattice parameter (alat)  =       5.7603  a.u.
     unit-cell volume          =    1183.0597 (a.u.)^3
     number of atoms/cell      =            5
     number of atomic types    =            3
     number of electrons       =        42.00
     number of Kohn-Sham states=           80
     kinetic-energy cutoff     =      40.0000  Ry
     charge density cutoff     =     320.0000  Ry
     Exchange-correlation= PBE
                           (   1   4   3   4   0   0   0)

     celldm(1)=   5.760320  celldm(2)=   0.000000  celldm(3)=   0.000000
     celldm(4)=   0.000000  celldm(5)=   0.000000  celldm(6)=   0.000000

     crystal axes: (cart. coord. in units of alat)
               a(1) = (   1.000000   0.000000   0.000000 )  
               a(2) = (  -0.500002   0.866027   0.000000 )  
               a(3) = (   0.000000   0.000000   7.147190 )  

     reciprocal axes: (cart. coord. in units 2 pi/alat)
               b(1) = (  1.000000  0.577351 -0.000000 )  
               b(2) = (  0.000000  1.154698  0.000000 )  
               b(3) = (  0.000000 -0.000000  0.139915 )  


     PseudoPot. # 1 for Ti read from file:
     ../pseudopotential/Ti.upf
     MD5 check sum: 0b3868d933a8ea9356727c02a1b807de
     Pseudo is Norm-conserving + core correction, Zval = 12.0
     Generated using ONCVPSP code by D. R. Hamann
     Using radial grid of 1586 points,  6 beta functions with: 
                l(1) =   0
                l(2) =   0
                l(3) =   1
                l(4) =   1
                l(5) =   2
                l(6) =   2

     PseudoPot. # 2 for C  read from file:
     ../pseudopotential/C.upf
     MD5 check sum: 34a24e64c0a39f27c6c36b90a16ac686
     Pseudo is Norm-conserving + core correction, Zval =  4.0
     Generated using ONCVPSP code by D. R. Hamann
     Using radial grid of 1248 points,  4 beta functions with: 
                l(1) =   0
                l(2) =   0
                l(3) =   1
                l(4) =   1

     PseudoPot. # 3 for F  read from file:
     ../pseudopotential/F.upf
     MD5 check sum: e79d493a50113cefedcefee2f1adb6e7
     Pseudo is Norm-conserving + core correction, Zval =  7.0
     Generated using ONCVPSP code by D. R. Hamann
     Using radial grid of  832 points,  5 beta functions with: 
                l(1) =   0
                l(2) =   0
                l(3) =   1
                l(4) =   1
                l(5) =   2

     atomic species   valence    mass     pseudopotential
     Ti               12.00    47.86700     Ti( 1.00)
     C                 4.00    12.01100     C ( 1.00)
     F                 7.00    18.99800     F ( 1.00)

     No symmetry found



   Cartesian axes

     site n.     atom                  positions (alat units)
         1        Ti     tau(   1) = (  -0.0000003   0.5773513   0.5715047  )
         2        Ti     tau(   2) = (   0.5000011   0.2886759   1.3267197  )
         3        C      tau(   3) = (   0.0000011  -0.0000000   0.9491568  )
         4        F      tau(   4) = (  -0.0000000   0.5773514   1.7353267  )
         5        F      tau(   5) = (   0.5000015   0.2886757   0.1628986  )

     number of k points=   144  Marzari-Vanderbilt smearing, width (Ry)=  0.0200

     Number of k-points >= 100: set verbosity='high' to print them.

     Dense  grid:   114499 G-vectors     FFT dimensions: (  36,  36, 240)

     Smooth grid:    40467 G-vectors     FFT dimensions: (  24,  24, 180)

     Estimated max dynamical RAM per process >      25.45 MB

     Estimated total dynamical RAM >     101.80 MB

     The potential is recalculated from file :
     ./tmp/ti2cf2_eps.save/charge-density

     Starting wfcs are   32 randomized atomic wfcs +   48 random wfcs

     Band Structure Calculation
     Davidson diagonalization with overlap

     ethr =  2.38E-11,  avg # of iterations = 36.3

     total cpu time spent up to now is     1783.7 secs

     End of band structure calculation

     Number of k-points >= 100: set verbosity='high' to print the bands.

     the Fermi energy is     1.0487 ev
     (compare with:     1.0487 eV, computed in scf)

     Writing all to output data dir ./tmp/ti2cf2_eps.save/ :
     XML data file, pseudopotentials, collected wavefunctions

     init_run     :      0.69s CPU      0.71s WALL (       1 calls)
     electrons    :   1247.89s CPU   1782.89s WALL (       1 calls)

     Called by init_run:
     wfcinit      :      0.00s CPU      0.00s WALL (       1 calls)
     potinit      :      0.26s CPU      0.28s WALL (       1 calls)
     hinit0       :      0.40s CPU      0.40s WALL (       1 calls)

     Called by electrons:
     c_bands      :   1247.88s CPU   1782.86s WALL (       1 calls)
     v_of_rho     :      0.02s CPU      0.03s WALL (       1 calls)

     Called by c_bands:
     init_us_2    :      0.10s CPU      0.12s WALL (     144 calls)
     cegterg      :   1204.14s CPU   1720.53s WALL (     303 calls)

     Called by *egterg:
     cdiaghg      :    100.15s CPU    150.84s WALL (    5376 calls)
     h_psi        :    615.32s CPU    884.72s WALL (    5679 calls)
     g_psi        :      0.69s CPU      0.92s WALL (    5232 calls)

     Called by h_psi:
     h_psi:calbec :     64.00s CPU     84.60s WALL (    5679 calls)
     vloc_psi     :    518.09s CPU    755.20s WALL (    5679 calls)
                                        0.00s GPU  (    5679 calls)
     add_vuspsi   :     31.96s CPU     43.19s WALL (    5679 calls)

     General routines
     calbec       :     63.97s CPU     84.58s WALL (    5679 calls)
     fft          :      0.34s CPU      0.34s WALL (      12 calls)
     ffts         :      0.24s CPU      0.24s WALL (       1 calls)
     fftw         :    507.23s CPU    741.43s WALL (  448282 calls)
     interpolate  :      0.24s CPU      0.24s WALL (       1 calls)
     davcio       :      0.23s CPU      2.01s WALL (     288 calls)

     Parallel routines

     PWSCF        :  20m55.00s CPU  29m57.30s WALL


   This run was terminated on:  16:37:39  24Sep2026            

=------------------------------------------------------------------------------=
   JOB DONE.
=------------------------------------------------------------------------------=
