
     Program PWSCF v.7.5 starts on 22Sep2026 at 16:33:36 

     This program is part of the open-source Quantum ESPRESSO suite
     for quantum simulation of materials; please cite
         "P. Giannozzi et al., J. Phys.:Condens. Matter 21 395502 (2009);
         "P. Giannozzi et al., J. Phys.:Condens. Matter 29 465901 (2017);
         "P. Giannozzi et al., J. Chem. Phys. 152 154105 (2020);
          URL http://www.quantum-espresso.org", 
     in publications or presentations arising from this work. More details at
     http://www.quantum-espresso.org/quote

     Parallel version (MPI), running on     4 processors

     MPI processes distributed on     1 nodes
     5215 MiB available memory on the printing compute node when the environment starts

     Waiting for input...
     Reading input from standard input
Warning: card &IONS ignored

     Current dimensions of program PWSCF are:
     Max number of different atomic species (ntypx) = 10
     Max number of k-points (npk) =  40000
     Max angular momentum in pseudopotentials (lmaxx) =  4
     file Ti.pbe-spn-kjpaw_psl.1.0.0.UPF: wavefunction(s)  3S 3P 3D renormalized
     file C.pbe-n-kjpaw_psl.1.0.0.UPF: wavefunction(s)  2S 2P renormalized
     file F.pbe-n-kjpaw_psl.1.0.0.UPF: wavefunction(s)  2S 2P renormalized

     Atomic positions and unit cell read from directory:
     ./tmp/ti2cf2.save/


     R & G space division:  proc/nbgrp/npool/nimage =       4
     Subspace diagonalization in iterative solution of the eigenvalue problem:
     a serial algorithm will be used


     Parallelization info
     --------------------
     sticks:   dense  smooth     PW     G-vecs:    dense   smooth      PW
     Min         186      91     30                28620    10110    2018
     Max         187      92     31                28631    10122    2049
     Sum         745     367    121               114499    40467    8113

     Using Slab Decomposition



     bravais-lattice index     =            0
     lattice parameter (alat)  =       5.7603  a.u.
     unit-cell volume          =    1183.0597 (a.u.)^3
     number of atoms/cell      =            5
     number of atomic types    =            3
     number of electrons       =        42.00
     number of Kohn-Sham states=           25
     kinetic-energy cutoff     =      40.0000  Ry
     charge density cutoff     =     320.0000  Ry
     Exchange-correlation= SLA  PW   PBX  PBC
                           (   1   4   3   4   0   0   0)

     celldm(1)=   5.760320  celldm(2)=   0.000000  celldm(3)=   0.000000
     celldm(4)=   0.000000  celldm(5)=   0.000000  celldm(6)=   0.000000

     crystal axes: (cart. coord. in units of alat)
               a(1) = (   1.000000   0.000000   0.000000 )  
               a(2) = (  -0.500002   0.866027   0.000000 )  
               a(3) = (   0.000000   0.000000   7.147190 )  

     reciprocal axes: (cart. coord. in units 2 pi/alat)
               b(1) = (  1.000000  0.577351 -0.000000 )  
               b(2) = (  0.000000  1.154698  0.000000 )  
               b(3) = (  0.000000 -0.000000  0.139915 )  


     PseudoPot. # 1 for Ti read from file:
     ../pseudopotential/Ti.pbe-spn-kjpaw_psl.1.0.0.UPF
     MD5 check sum: 01f69b0d8ba4438b2e03ac6ea4af1c0b
     Pseudo is Projector augmented-wave + core cor, Zval = 12.0
     Generated using &quot;atomic&quot; code by A. Dal Corso  v.6.2.2
     Shape of augmentation charge: PSQ
     Using radial grid of 1177 points,  6 beta functions with: 
                l(1) =   0
                l(2) =   0
                l(3) =   1
                l(4) =   1
                l(5) =   2
                l(6) =   2
     Q(r) pseudized with 0 coefficients 


     PseudoPot. # 2 for C  read from file:
     ../pseudopotential/C.pbe-n-kjpaw_psl.1.0.0.UPF
     MD5 check sum: 5f16ad9a65e90284d1d834d4ab3b0f7d
     Pseudo is Projector augmented-wave + core cor, Zval =  4.0
     Generated using &quot;atomic&quot; code by A. Dal Corso  v.6.3
     Shape of augmentation charge: PSQ
     Using radial grid of 1073 points,  4 beta functions with: 
                l(1) =   0
                l(2) =   0
                l(3) =   1
                l(4) =   1
     Q(r) pseudized with 0 coefficients 


     PseudoPot. # 3 for F  read from file:
     ../pseudopotential/F.pbe-n-kjpaw_psl.1.0.0.UPF
     MD5 check sum: 66d718ea72839a4268ab2a9540e8cdd4
     Pseudo is Projector augmented-wave + core cor, Zval =  7.0
     Generated using &quot;atomic&quot; code by A. Dal Corso  v.6.3
     Shape of augmentation charge: PSQ
     Using radial grid of 1105 points,  4 beta functions with: 
                l(1) =   0
                l(2) =   0
                l(3) =   1
                l(4) =   1
     Q(r) pseudized with 0 coefficients 


     atomic species   valence    mass     pseudopotential
     Ti               12.00    47.86700     Ti( 1.00)
     C                 4.00    12.01100     C ( 1.00)
     F                 7.00    18.99800     F ( 1.00)

     No symmetry found



   Cartesian axes

     site n.     atom                  positions (alat units)
         1        Ti     tau(   1) = (  -0.0000003   0.5773513   0.5715047  )
         2        Ti     tau(   2) = (   0.5000011   0.2886759   1.3267197  )
         3        C      tau(   3) = (   0.0000011  -0.0000000   0.9491568  )
         4        F      tau(   4) = (  -0.0000000   0.5773514   1.7353267  )
         5        F      tau(   5) = (   0.5000015   0.2886757   0.1628986  )

     number of k points=    34 (tetrahedron method)
                       cart. coord. in units 2pi/alat
        k(    1) = (   0.0000000   0.0000000   0.0000000), wk =   0.0312500
        k(    2) = (   0.0000000   0.1443373   0.0000000), wk =   0.0625000
        k(    3) = (   0.0000000   0.2886745   0.0000000), wk =   0.0625000
        k(    4) = (   0.0000000   0.4330118   0.0000000), wk =   0.0625000
        k(    5) = (   0.0000000  -0.5773491   0.0000000), wk =   0.0312500
        k(    6) = (   0.1250000   0.0721689   0.0000000), wk =   0.0625000
        k(    7) = (   0.1250000   0.2165061   0.0000000), wk =   0.0625000
        k(    8) = (   0.1250000   0.3608434   0.0000000), wk =   0.0625000
        k(    9) = (   0.1250000   0.5051807   0.0000000), wk =   0.0625000
        k(   10) = (   0.1250000  -0.5051802   0.0000000), wk =   0.0625000
        k(   11) = (   0.1250000  -0.3608429   0.0000000), wk =   0.0625000
        k(   12) = (   0.1250000  -0.2165057   0.0000000), wk =   0.0625000
        k(   13) = (   0.1250000  -0.0721684   0.0000000), wk =   0.0625000
        k(   14) = (   0.2500000   0.1443377   0.0000000), wk =   0.0625000
        k(   15) = (   0.2500000   0.2886750   0.0000000), wk =   0.0625000
        k(   16) = (   0.2500000   0.4330123   0.0000000), wk =   0.0625000
        k(   17) = (   0.2500000   0.5773496   0.0000000), wk =   0.0625000
        k(   18) = (   0.2500000  -0.4330113   0.0000000), wk =   0.0625000
        k(   19) = (   0.2500000  -0.2886741   0.0000000), wk =   0.0625000
        k(   20) = (   0.2500000  -0.1443368   0.0000000), wk =   0.0625000
        k(   21) = (   0.2500000   0.0000005   0.0000000), wk =   0.0625000
        k(   22) = (   0.3750000   0.2165066   0.0000000), wk =   0.0625000
        k(   23) = (   0.3750000   0.3608439   0.0000000), wk =   0.0625000
        k(   24) = (   0.3750000   0.5051812   0.0000000), wk =   0.0625000
        k(   25) = (   0.3750000   0.6495184   0.0000000), wk =   0.0625000
        k(   26) = (   0.3750000  -0.3608425   0.0000000), wk =   0.0625000
        k(   27) = (   0.3750000  -0.2165052   0.0000000), wk =   0.0625000
        k(   28) = (   0.3750000  -0.0721679   0.0000000), wk =   0.0625000
        k(   29) = (   0.3750000   0.0721693   0.0000000), wk =   0.0625000
        k(   30) = (  -0.5000000  -0.2886755   0.0000000), wk =   0.0312500
        k(   31) = (  -0.5000000  -0.1443382   0.0000000), wk =   0.0625000
        k(   32) = (  -0.5000000  -0.0000009   0.0000000), wk =   0.0625000
        k(   33) = (  -0.5000000   0.1443363   0.0000000), wk =   0.0625000
        k(   34) = (  -0.5000000  -0.8660246   0.0000000), wk =   0.0312500

     Dense  grid:   114499 G-vectors     FFT dimensions: (  36,  36, 240)

     Smooth grid:    40467 G-vectors     FFT dimensions: (  24,  24, 180)

     Estimated max dynamical RAM per process >      98.87 MB

     Estimated total dynamical RAM >     395.49 MB

     Check: negative core charge=   -0.000005

     The potential is recalculated from file :
     ./tmp/ti2cf2.save/charge-density


     negative rho (up, down):  2.485E-03 0.000E+00
     Starting wfcs are   32 randomized atomic wfcs
     Checking if some PAW data can be deallocated... 

     Band Structure Calculation
     Davidson diagonalization with overlap
     c_bands:  1 eigenvalues not converged
     c_bands:  1 eigenvalues not converged
     c_bands:  1 eigenvalues not converged

     ethr =  2.38E-11,  avg # of iterations = 68.9

     total cpu time spent up to now is      113.4 secs

     End of band structure calculation

          k = 0.0000 0.0000 0.0000 (  5033 PWs)   bands (ev):

   -57.1787 -57.1092 -33.7276 -33.3604 -33.2350 -33.2350 -33.1873 -33.1872
   -24.6883 -24.6649 -11.3399  -7.1114  -6.0538  -6.0164  -6.0164  -5.8795
    -5.8795  -3.3049  -2.0561  -2.0561   0.4923   0.4923   0.7040   2.0898
     2.0898

          k = 0.0000 0.1443 0.0000 (  5030 PWs)   bands (ev):

   -57.1687 -57.1038 -33.7024 -33.3919 -33.2694 -33.2547 -33.2460 -33.1938
   -24.6564 -24.6389 -11.1799  -6.9309  -6.3978  -6.1449  -6.0112  -5.9036
    -5.8045  -3.2117  -2.5789  -2.1665   0.1919   0.7570   0.9080   1.9850
     2.0884

          k = 0.0000 0.2887 0.0000 (  5052 PWs)   bands (ev):

   -57.1436 -57.0916 -33.6458 -33.5163 -33.3904 -33.2982 -33.2907 -33.2134
   -24.5848 -24.5790 -10.7670  -6.6751  -6.5984  -6.5119  -6.0406  -6.0239
    -5.9688  -3.4309  -3.1028  -2.3234  -0.4658   1.3895   1.4358   2.0486
     2.1729

          k = 0.0000 0.4330 0.0000 (  5068 PWs)   bands (ev):

   -57.1159 -57.0818 -33.6759 -33.6177 -33.4629 -33.3388 -33.3107 -33.2356
   -24.5233 -24.5202 -10.2816  -7.0780  -6.8302  -6.3871  -6.2028  -6.0791
    -6.0324  -3.9830  -2.9966  -2.3805  -1.0170   1.9715   2.0841   2.3252
     2.5964

          k = 0.0000-0.5773 0.0000 (  5064 PWs)   bands (ev):

   -57.1026 -57.0796 -33.7333 -33.6525 -33.4446 -33.3551 -33.3270 -33.2452
   -24.5010 -24.4956 -10.0321  -7.3544  -7.0170  -6.2884  -6.1596  -6.1158
    -6.0552  -4.2006  -2.9091  -2.3850  -1.2285   2.0362   2.4215   2.6775
     2.7949

          k = 0.1250 0.0722 0.0000 (  5030 PWs)   bands (ev):

   -57.1687 -57.1038 -33.7024 -33.3919 -33.2694 -33.2547 -33.2460 -33.1938
   -24.6564 -24.6389 -11.1799  -6.9309  -6.3978  -6.1449  -6.0112  -5.9036
    -5.8045  -3.2117  -2.5789  -2.1666   0.1919   0.7570   0.9080   1.9850
     2.0884

          k = 0.1250 0.2165 0.0000 (  5046 PWs)   bands (ev):

   -57.1511 -57.0951 -33.6606 -33.4655 -33.3678 -33.2820 -33.2723 -33.2213
   -24.6049 -24.5960 -10.8925  -6.6452  -6.5600  -6.4943  -6.0632  -6.0203
    -5.8266  -3.1388  -3.1347  -2.4828   0.2309   0.4385   1.6011   2.0669
     2.1641

          k = 0.1250 0.3608 0.0000 (  5064 PWs)   bands (ev):

   -57.1245 -57.0843 -33.6279 -33.5805 -33.4608 -33.3400 -33.2982 -33.2533
   -24.5386 -24.5375 -10.4372  -6.8557  -6.6981  -6.3640  -6.2893  -6.0923
    -6.0066  -3.7425  -3.0610  -2.7850  -0.2022   0.9950   2.0460   2.3493
     2.4673

          k = 0.1250 0.5052 0.0000 (  5072 PWs)   bands (ev):

   -57.1027 -57.0795 -33.6957 -33.6303 -33.4448 -33.3994 -33.3130 -33.2785
   -24.4989 -24.4949 -10.0479  -7.1602  -6.9760  -6.2942  -6.2156  -6.1686
    -6.0932  -4.1060  -2.9530  -2.9229  -0.5082   1.7940   2.1139   2.5682
     2.6504

          k = 0.1250-0.5052 0.0000 (  5072 PWs)   bands (ev):

   -57.1027 -57.0795 -33.6957 -33.6303 -33.4448 -33.3994 -33.3130 -33.2785
   -24.4989 -24.4949 -10.0479  -7.1602  -6.9760  -6.2942  -6.2156  -6.1686
    -6.0932  -4.1060  -2.9529  -2.9229  -0.5082   1.7940   2.1139   2.5682
     2.6504

          k = 0.1250-0.3608 0.0000 (  5064 PWs)   bands (ev):

   -57.1245 -57.0843 -33.6279 -33.5804 -33.4608 -33.3400 -33.2982 -33.2533
   -24.5386 -24.5375 -10.4372  -6.8557  -6.6981  -6.3640  -6.2893  -6.0923
    -6.0066  -3.7425  -3.0610  -2.7850  -0.2022   0.9950   2.0460   2.3493
     2.4673

          k = 0.1250-0.2165 0.0000 (  5046 PWs)   bands (ev):

   -57.1511 -57.0951 -33.6606 -33.4655 -33.3678 -33.2820 -33.2723 -33.2212
   -24.6049 -24.5960 -10.8925  -6.6452  -6.5600  -6.4943  -6.0632  -6.0203
    -5.8266  -3.1388  -3.1347  -2.4828   0.2309   0.4386   1.6011   2.0669
     2.1641

          k = 0.1250-0.0722 0.0000 (  5030 PWs)   bands (ev):

   -57.1687 -57.1038 -33.7024 -33.3919 -33.2694 -33.2547 -33.2460 -33.1938
   -24.6564 -24.6389 -11.1799  -6.9309  -6.3978  -6.1449  -6.0112  -5.9036
    -5.8045  -3.2117  -2.5789  -2.1665   0.1919   0.7570   0.9080   1.9850
     2.0884

          k = 0.2500 0.1443 0.0000 (  5052 PWs)   bands (ev):

   -57.1436 -57.0916 -33.6458 -33.5163 -33.3904 -33.2982 -33.2907 -33.2134
   -24.5848 -24.5790 -10.7670  -6.6751  -6.5984  -6.5119  -6.0406  -6.0239
    -5.9688  -3.4309  -3.1028  -2.3235  -0.4658   1.3894   1.4358   2.0486
     2.1729

          k = 0.2500 0.2887 0.0000 (  5064 PWs)   bands (ev):

   -57.1245 -57.0843 -33.6279 -33.5804 -33.4608 -33.3400 -33.2982 -33.2533
   -24.5386 -24.5375 -10.4372  -6.8557  -6.6981  -6.3640  -6.2893  -6.0923
    -6.0066  -3.7425  -3.0610  -2.7851  -0.2022   0.9950   2.0460   2.3493
     2.4673

          k = 0.2500 0.4330 0.0000 (  5064 PWs)   bands (ev):

   -57.1027 -57.0795 -33.6353 -33.6139 -33.4846 -33.3784 -33.3593 -33.2943
   -24.4966 -24.4944 -10.0622  -6.9339  -6.9196  -6.2874  -6.2869  -6.2243
    -6.1617  -3.9630  -3.3743  -2.9796   0.5900   0.7456   2.1634   2.4342
     2.4418

          k = 0.2500 0.5773 0.0000 (  5042 PWs)   bands (ev):

   -57.0904 -57.0808 -33.6435 -33.6057 -33.5150 -33.4075 -33.3521 -33.3265
   -24.4791 -24.4771  -9.8907  -6.9635  -6.9401  -6.4643  -6.3830  -6.1640
    -6.1229  -4.0316  -3.6079  -2.9347   0.5213   1.5292   1.9098   2.3498
     2.5630

          k = 0.2500-0.4330 0.0000 (  5064 PWs)   bands (ev):

   -57.1027 -57.0795 -33.6353 -33.6139 -33.4846 -33.3784 -33.3593 -33.2943
   -24.4966 -24.4944 -10.0622  -6.9339  -6.9195  -6.2874  -6.2869  -6.2243
    -6.1617  -3.9630  -3.3743  -2.9796   0.5901   0.7456   2.1634   2.4342
     2.4418

          k = 0.2500-0.2887 0.0000 (  5064 PWs)   bands (ev):

   -57.1245 -57.0843 -33.6279 -33.5804 -33.4608 -33.3400 -33.2982 -33.2533
   -24.5386 -24.5375 -10.4372  -6.8557  -6.6981  -6.3640  -6.2893  -6.0923
    -6.0066  -3.7425  -3.0610  -2.7851  -0.2022   0.9950   2.0460   2.3493
     2.4673

          k = 0.2500-0.1443 0.0000 (  5052 PWs)   bands (ev):

   -57.1436 -57.0916 -33.6458 -33.5163 -33.3904 -33.2982 -33.2907 -33.2134
   -24.5848 -24.5790 -10.7670  -6.6751  -6.5984  -6.5119  -6.0406  -6.0239
    -5.9688  -3.4309  -3.1028  -2.3234  -0.4658   1.3895   1.4358   2.0486
     2.1729

          k = 0.2500 0.0000 0.0000 (  5046 PWs)   bands (ev):

   -57.1511 -57.0951 -33.6606 -33.4655 -33.3678 -33.2820 -33.2723 -33.2212
   -24.6049 -24.5960 -10.8925  -6.6452  -6.5600  -6.4943  -6.0632  -6.0203
    -5.8266  -3.1388  -3.1347  -2.4828   0.2309   0.4385   1.6011   2.0669
     2.1641

          k = 0.3750 0.2165 0.0000 (  5068 PWs)   bands (ev):

   -57.1159 -57.0818 -33.6759 -33.6177 -33.4629 -33.3388 -33.3107 -33.2356
   -24.5233 -24.5202 -10.2816  -7.0780  -6.8302  -6.3871  -6.2028  -6.0791
    -6.0324  -3.9830  -2.9966  -2.3805  -1.0170   1.9715   2.0841   2.3252
     2.5964

          k = 0.3750 0.3608 0.0000 (  5072 PWs)   bands (ev):

   -57.1027 -57.0795 -33.6957 -33.6303 -33.4448 -33.3994 -33.3130 -33.2785
   -24.4989 -24.4949 -10.0479  -7.1602  -6.9760  -6.2942  -6.2156  -6.1686
    -6.0932  -4.1060  -2.9530  -2.9229  -0.5082   1.7940   2.1139   2.5682
     2.6504

          k = 0.3750 0.5052 0.0000 (  5042 PWs)   bands (ev):

   -57.0904 -57.0808 -33.6435 -33.6057 -33.5150 -33.4075 -33.3521 -33.3265
   -24.4791 -24.4771  -9.8907  -6.9635  -6.9401  -6.4643  -6.3830  -6.1640
    -6.1229  -4.0316  -3.6080  -2.9347   0.5212   1.5293   1.9098   2.3498
     2.5630

          k = 0.3750 0.6495 0.0000 (  5042 PWs)   bands (ev):

   -57.0904 -57.0808 -33.6435 -33.6057 -33.5150 -33.4075 -33.3521 -33.3265
   -24.4791 -24.4771  -9.8907  -6.9635  -6.9401  -6.4643  -6.3830  -6.1640
    -6.1229  -4.0316  -3.6080  -2.9347   0.5213   1.5292   1.9098   2.3498
     2.5630

          k = 0.3750-0.3608 0.0000 (  5072 PWs)   bands (ev):

   -57.1027 -57.0795 -33.6957 -33.6303 -33.4448 -33.3994 -33.3130 -33.2785
   -24.4989 -24.4949 -10.0479  -7.1602  -6.9760  -6.2942  -6.2156  -6.1686
    -6.0932  -4.1060  -2.9529  -2.9229  -0.5082   1.7940   2.1139   2.5682
     2.6504

          k = 0.3750-0.2165 0.0000 (  5068 PWs)   bands (ev):

   -57.1159 -57.0818 -33.6759 -33.6177 -33.4629 -33.3388 -33.3107 -33.2356
   -24.5233 -24.5202 -10.2816  -7.0780  -6.8302  -6.3871  -6.2028  -6.0791
    -6.0324  -3.9830  -2.9966  -2.3805  -1.0170   1.9715   2.0841   2.3252
     2.5964

          k = 0.3750-0.0722 0.0000 (  5064 PWs)   bands (ev):

   -57.1245 -57.0843 -33.6279 -33.5805 -33.4608 -33.3400 -33.2982 -33.2533
   -24.5386 -24.5375 -10.4372  -6.8557  -6.6981  -6.3640  -6.2893  -6.0923
    -6.0066  -3.7425  -3.0610  -2.7851  -0.2022   0.9950   2.0460   2.3493
     2.4673

          k = 0.3750 0.0722 0.0000 (  5064 PWs)   bands (ev):

   -57.1245 -57.0843 -33.6279 -33.5805 -33.4608 -33.3400 -33.2982 -33.2533
   -24.5386 -24.5375 -10.4372  -6.8557  -6.6981  -6.3640  -6.2893  -6.0923
    -6.0066  -3.7425  -3.0610  -2.7851  -0.2022   0.9950   2.0460   2.3493
     2.4673

          k =-0.5000-0.2887 0.0000 (  5064 PWs)   bands (ev):

   -57.1026 -57.0796 -33.7333 -33.6525 -33.4446 -33.3551 -33.3270 -33.2452
   -24.5010 -24.4956 -10.0321  -7.3544  -7.0170  -6.2884  -6.1596  -6.1158
    -6.0553  -4.2006  -2.9091  -2.3850  -1.2285   2.0362   2.4215   2.6775
     2.7949

          k =-0.5000-0.1443 0.0000 (  5072 PWs)   bands (ev):

   -57.1027 -57.0795 -33.6957 -33.6303 -33.4448 -33.3994 -33.3130 -33.2785
   -24.4989 -24.4949 -10.0479  -7.1602  -6.9760  -6.2942  -6.2156  -6.1686
    -6.0932  -4.1060  -2.9530  -2.9229  -0.5082   1.7940   2.1139   2.5682
     2.6504

          k =-0.5000-0.0000 0.0000 (  5064 PWs)   bands (ev):

   -57.1027 -57.0795 -33.6353 -33.6140 -33.4846 -33.3784 -33.3593 -33.2943
   -24.4966 -24.4944 -10.0622  -6.9339  -6.9196  -6.2874  -6.2869  -6.2243
    -6.1617  -3.9630  -3.3743  -2.9796   0.5900   0.7456   2.1634   2.4342
     2.4418

          k =-0.5000 0.1443 0.0000 (  5072 PWs)   bands (ev):

   -57.1027 -57.0795 -33.6958 -33.6303 -33.4448 -33.3994 -33.3130 -33.2785
   -24.4989 -24.4949 -10.0479  -7.1602  -6.9760  -6.2942  -6.2156  -6.1686
    -6.0932  -4.1060  -2.9529  -2.9229  -0.5082   1.7940   2.1139   2.5682
     2.6504

          k =-0.5000-0.8660 0.0000 (  5064 PWs)   bands (ev):

   -57.1026 -57.0796 -33.7333 -33.6525 -33.4446 -33.3551 -33.3270 -33.2452
   -24.5010 -24.4956 -10.0321  -7.3544  -7.0170  -6.2884  -6.1596  -6.1158
    -6.0553  -4.2006  -2.9091  -2.3850  -1.2285   2.0362   2.4215   2.6774
     2.7949

     the Fermi energy is     0.5519 ev
     (compare with:     0.5519 eV, computed in scf)

     Writing all to output data dir ./tmp/ti2cf2.save/ :
     XML data file, pseudopotentials, collected wavefunctions

     init_run     :      1.08s CPU      1.19s WALL (       1 calls)
     electrons    :     80.68s CPU    112.05s WALL (       1 calls)

     Called by init_run:
     wfcinit      :      0.00s CPU      0.00s WALL (       1 calls)
     potinit      :      0.48s CPU      0.51s WALL (       1 calls)
     hinit0       :      0.47s CPU      0.46s WALL (       1 calls)

     Called by electrons:
     c_bands      :     80.68s CPU    112.04s WALL (       1 calls)
     v_of_rho     :      0.02s CPU      0.04s WALL (       1 calls)
     newd         :      0.11s CPU      0.20s WALL (       1 calls)
     PAW_pot      :      0.21s CPU      0.24s WALL (       1 calls)

     Called by c_bands:
     init_us_2    :      0.01s CPU      0.02s WALL (      34 calls)
     cegterg      :     78.42s CPU    107.48s WALL (     130 calls)

     Called by *egterg:
     cdiaghg      :      3.79s CPU      5.22s WALL (    2378 calls)
     h_psi        :     46.37s CPU     67.23s WALL (    2508 calls)
     s_psi        :      3.05s CPU      3.48s WALL (    2508 calls)
     g_psi        :      0.07s CPU      0.08s WALL (    2344 calls)

     Called by h_psi:
     h_psi:calbec :      6.62s CPU      8.38s WALL (    2508 calls)
     vloc_psi     :     36.57s CPU     55.39s WALL (    2508 calls)
                                        0.00s GPU  (    2508 calls)
     add_vuspsi   :      3.10s CPU      3.38s WALL (    2508 calls)

     General routines
     calbec       :      6.61s CPU      8.38s WALL (    2508 calls)
     fft          :      0.36s CPU      0.34s WALL (      13 calls)
     ffts         :      0.24s CPU      0.22s WALL (       1 calls)
     fftw         :     35.49s CPU     54.20s WALL (   51326 calls)
     interpolate  :      0.24s CPU      0.23s WALL (       1 calls)
     davcio       :      0.01s CPU      0.02s WALL (      68 calls)

     Parallel routines

     PWSCF        :   1m21.96s CPU   1m53.51s WALL


   This run was terminated on:  16:35:29  22Sep2026            

=------------------------------------------------------------------------------=
   JOB DONE.
=------------------------------------------------------------------------------=
