
     Program PWSCF v.7.5 starts on 22Sep2026 at 13:53: 0 

     This program is part of the open-source Quantum ESPRESSO suite
     for quantum simulation of materials; please cite
         "P. Giannozzi et al., J. Phys.:Condens. Matter 21 395502 (2009);
         "P. Giannozzi et al., J. Phys.:Condens. Matter 29 465901 (2017);
         "P. Giannozzi et al., J. Chem. Phys. 152 154105 (2020);
          URL http://www.quantum-espresso.org", 
     in publications or presentations arising from this work. More details at
     http://www.quantum-espresso.org/quote

     Parallel version (MPI), running on     4 processors

     MPI processes distributed on     1 nodes
     6178 MiB available memory on the printing compute node when the environment starts

     Waiting for input...
     Reading input from standard input

     Current dimensions of program PWSCF are:
     Max number of different atomic species (ntypx) = 10
     Max number of k-points (npk) =  40000
     Max angular momentum in pseudopotentials (lmaxx) =  4
     file Ti.pbe-spn-kjpaw_psl.1.0.0.UPF: wavefunction(s)  3S 3P 3D renormalized
     file C.pbe-n-kjpaw_psl.1.0.0.UPF: wavefunction(s)  2S 2P renormalized
     file F.pbe-n-kjpaw_psl.1.0.0.UPF: wavefunction(s)  2S 2P renormalized

     R & G space division:  proc/nbgrp/npool/nimage =       4
     Subspace diagonalization in iterative solution of the eigenvalue problem:
     a serial algorithm will be used


     Parallelization info
     --------------------
     sticks:   dense  smooth     PW     G-vecs:    dense   smooth      PW
     Min         186      91     30                28620    10110    2018
     Max         187      92     31                28631    10122    2049
     Sum         745     367    121               114499    40467    8113

     Using Slab Decomposition



     bravais-lattice index     =            0
     lattice parameter (alat)  =       5.7603  a.u.
     unit-cell volume          =    1183.0597 (a.u.)^3
     number of atoms/cell      =            5
     number of atomic types    =            3
     number of electrons       =        42.00
     number of Kohn-Sham states=           25
     kinetic-energy cutoff     =      40.0000  Ry
     charge density cutoff     =     320.0000  Ry
     scf convergence threshold =      1.0E-08
     mixing beta               =       0.7000
     number of iterations used =            8  plain     mixing
     Exchange-correlation= SLA  PW   PBX  PBC
                           (   1   4   3   4   0   0   0)

     celldm(1)=   5.760320  celldm(2)=   0.000000  celldm(3)=   0.000000
     celldm(4)=   0.000000  celldm(5)=   0.000000  celldm(6)=   0.000000

     crystal axes: (cart. coord. in units of alat)
               a(1) = (   1.000000   0.000000   0.000000 )  
               a(2) = (  -0.500002   0.866027   0.000000 )  
               a(3) = (   0.000000   0.000000   7.147190 )  

     reciprocal axes: (cart. coord. in units 2 pi/alat)
               b(1) = (  1.000000  0.577351 -0.000000 )  
               b(2) = (  0.000000  1.154698  0.000000 )  
               b(3) = (  0.000000 -0.000000  0.139915 )  


     PseudoPot. # 1 for Ti read from file:
     ../pseudopotential/Ti.pbe-spn-kjpaw_psl.1.0.0.UPF
     MD5 check sum: 01f69b0d8ba4438b2e03ac6ea4af1c0b
     Pseudo is Projector augmented-wave + core cor, Zval = 12.0
     Generated using &quot;atomic&quot; code by A. Dal Corso  v.6.2.2
     Shape of augmentation charge: PSQ
     Using radial grid of 1177 points,  6 beta functions with: 
                l(1) =   0
                l(2) =   0
                l(3) =   1
                l(4) =   1
                l(5) =   2
                l(6) =   2
     Q(r) pseudized with 0 coefficients 


     PseudoPot. # 2 for C  read from file:
     ../pseudopotential/C.pbe-n-kjpaw_psl.1.0.0.UPF
     MD5 check sum: 5f16ad9a65e90284d1d834d4ab3b0f7d
     Pseudo is Projector augmented-wave + core cor, Zval =  4.0
     Generated using &quot;atomic&quot; code by A. Dal Corso  v.6.3
     Shape of augmentation charge: PSQ
     Using radial grid of 1073 points,  4 beta functions with: 
                l(1) =   0
                l(2) =   0
                l(3) =   1
                l(4) =   1
     Q(r) pseudized with 0 coefficients 


     PseudoPot. # 3 for F  read from file:
     ../pseudopotential/F.pbe-n-kjpaw_psl.1.0.0.UPF
     MD5 check sum: 66d718ea72839a4268ab2a9540e8cdd4
     Pseudo is Projector augmented-wave + core cor, Zval =  7.0
     Generated using &quot;atomic&quot; code by A. Dal Corso  v.6.3
     Shape of augmentation charge: PSQ
     Using radial grid of 1105 points,  4 beta functions with: 
                l(1) =   0
                l(2) =   0
                l(3) =   1
                l(4) =   1
     Q(r) pseudized with 0 coefficients 


     atomic species   valence    mass     pseudopotential
     Ti               12.00    47.86700     Ti( 1.00)
     C                 4.00    12.01100     C ( 1.00)
     F                 7.00    18.99800     F ( 1.00)

     No symmetry found



   Cartesian axes

     site n.     atom                  positions (alat units)
         1        Ti     tau(   1) = (  -0.0000003   0.5773513   0.5715047  )
         2        Ti     tau(   2) = (   0.5000011   0.2886759   1.3267197  )
         3        C      tau(   3) = (   0.0000011  -0.0000000   0.9491568  )
         4        F      tau(   4) = (  -0.0000000   0.5773514   1.7353267  )
         5        F      tau(   5) = (   0.5000015   0.2886757   0.1628986  )

     number of k points=    20  Marzari-Vanderbilt smearing, width (Ry)=  0.0200
                       cart. coord. in units 2pi/alat
        k(    1) = (   0.0000000   0.0000000   0.0000000), wk =   0.0555556
        k(    2) = (   0.0000000   0.1924497   0.0000000), wk =   0.1111111
        k(    3) = (   0.0000000   0.3848994   0.0000000), wk =   0.1111111
        k(    4) = (   0.0000000  -0.5773491   0.0000000), wk =   0.0555556
        k(    5) = (   0.1666667   0.0962252   0.0000000), wk =   0.1111111
        k(    6) = (   0.1666667   0.2886749   0.0000000), wk =   0.1111111
        k(    7) = (   0.1666667   0.4811246   0.0000000), wk =   0.1111111
        k(    8) = (   0.1666667  -0.4811239   0.0000000), wk =   0.1111111
        k(    9) = (   0.1666667  -0.2886742   0.0000000), wk =   0.1111111
        k(   10) = (   0.1666667  -0.0962245   0.0000000), wk =   0.1111111
        k(   11) = (   0.3333333   0.1924503   0.0000000), wk =   0.1111111
        k(   12) = (   0.3333333   0.3849000   0.0000000), wk =   0.1111111
        k(   13) = (   0.3333333   0.5773497   0.0000000), wk =   0.1111111
        k(   14) = (   0.3333333  -0.3848988   0.0000000), wk =   0.1111111
        k(   15) = (   0.3333333  -0.1924491   0.0000000), wk =   0.1111111
        k(   16) = (   0.3333333   0.0000006   0.0000000), wk =   0.1111111
        k(   17) = (  -0.5000000  -0.2886755   0.0000000), wk =   0.0555556
        k(   18) = (  -0.5000000  -0.0962258   0.0000000), wk =   0.1111111
        k(   19) = (  -0.5000000   0.0962239   0.0000000), wk =   0.1111111
        k(   20) = (  -0.5000000  -0.8660246   0.0000000), wk =   0.0555556

     Dense  grid:   114499 G-vectors     FFT dimensions: (  36,  36, 240)

     Smooth grid:    40467 G-vectors     FFT dimensions: (  24,  24, 180)

     Estimated max dynamical RAM per process >     116.53 MB

     Estimated total dynamical RAM >     466.11 MB

     Check: negative core charge=   -0.000005

     Initial potential from superposition of free atoms

     starting charge      41.9970, renormalised to      42.0000

     negative rho (up, down):  2.050E-03 0.000E+00
     Starting wfcs are   32 randomized atomic wfcs
     Checking if some PAW data can be deallocated... 

     total cpu time spent up to now is        2.2 secs

     Self-consistent Calculation

     iteration #  1     ecut=    40.00 Ry     beta= 0.70
     Davidson diagonalization with overlap
     ethr =  1.00E-02,  avg # of iterations =  2.0

     negative rho (up, down):  2.045E-03 0.000E+00

     total cpu time spent up to now is        4.8 secs

     total energy              =    -504.11102410 Ry
     estimated scf accuracy    <       1.66942413 Ry

     iteration #  2     ecut=    40.00 Ry     beta= 0.70
     Davidson diagonalization with overlap
     ethr =  3.97E-03,  avg # of iterations =  5.2

     negative rho (up, down):  5.061E-03 0.000E+00

     total cpu time spent up to now is        8.3 secs

     total energy              =    -504.03405477 Ry
     estimated scf accuracy    <       5.72426233 Ry

     iteration #  3     ecut=    40.00 Ry     beta= 0.70
     Davidson diagonalization with overlap
     ethr =  3.97E-03,  avg # of iterations =  3.6

     negative rho (up, down):  3.097E-03 0.000E+00

     total cpu time spent up to now is       11.6 secs

     total energy              =    -505.02859629 Ry
     estimated scf accuracy    <       0.04430950 Ry

     iteration #  4     ecut=    40.00 Ry     beta= 0.70
     Davidson diagonalization with overlap
     ethr =  1.05E-04,  avg # of iterations =  4.4

     negative rho (up, down):  3.191E-03 0.000E+00

     total cpu time spent up to now is       15.7 secs

     total energy              =    -505.03708442 Ry
     estimated scf accuracy    <       0.07838194 Ry

     iteration #  5     ecut=    40.00 Ry     beta= 0.70
     Davidson diagonalization with overlap
     ethr =  1.05E-04,  avg # of iterations =  3.6

     negative rho (up, down):  2.666E-03 0.000E+00

     total cpu time spent up to now is       21.1 secs

     total energy              =    -505.03454672 Ry
     estimated scf accuracy    <       0.06557341 Ry

     iteration #  6     ecut=    40.00 Ry     beta= 0.70
     Davidson diagonalization with overlap
     ethr =  1.05E-04,  avg # of iterations =  2.4

     negative rho (up, down):  2.522E-03 0.000E+00

     total cpu time spent up to now is       24.0 secs

     total energy              =    -505.03928062 Ry
     estimated scf accuracy    <       0.00313445 Ry

     iteration #  7     ecut=    40.00 Ry     beta= 0.70
     Davidson diagonalization with overlap
     ethr =  7.46E-06,  avg # of iterations =  6.0

     negative rho (up, down):  2.507E-03 0.000E+00

     total cpu time spent up to now is       28.1 secs

     total energy              =    -505.04023642 Ry
     estimated scf accuracy    <       0.00704385 Ry

     iteration #  8     ecut=    40.00 Ry     beta= 0.70
     Davidson diagonalization with overlap
     ethr =  7.46E-06,  avg # of iterations =  3.0

     negative rho (up, down):  2.493E-03 0.000E+00

     total cpu time spent up to now is       31.1 secs

     total energy              =    -505.04032429 Ry
     estimated scf accuracy    <       0.00117478 Ry

     iteration #  9     ecut=    40.00 Ry     beta= 0.70
     Davidson diagonalization with overlap
     ethr =  2.80E-06,  avg # of iterations =  5.0

     negative rho (up, down):  2.484E-03 0.000E+00

     total cpu time spent up to now is       34.2 secs

     total energy              =    -505.04059848 Ry
     estimated scf accuracy    <       0.00003508 Ry

     iteration # 10     ecut=    40.00 Ry     beta= 0.70
     Davidson diagonalization with overlap
     ethr =  8.35E-08,  avg # of iterations =  5.0

     negative rho (up, down):  2.484E-03 0.000E+00

     total cpu time spent up to now is       37.3 secs

     total energy              =    -505.04059269 Ry
     estimated scf accuracy    <       0.00004666 Ry

     iteration # 11     ecut=    40.00 Ry     beta= 0.70
     Davidson diagonalization with overlap
     ethr =  8.35E-08,  avg # of iterations =  3.1

     negative rho (up, down):  2.485E-03 0.000E+00

     total cpu time spent up to now is       40.2 secs

     total energy              =    -505.04059590 Ry
     estimated scf accuracy    <       0.00000401 Ry

     iteration # 12     ecut=    40.00 Ry     beta= 0.70
     Davidson diagonalization with overlap
     ethr =  9.55E-09,  avg # of iterations =  6.5

     negative rho (up, down):  2.485E-03 0.000E+00

     total cpu time spent up to now is       44.3 secs

     total energy              =    -505.04059732 Ry
     estimated scf accuracy    <       0.00000046 Ry

     iteration # 13     ecut=    40.00 Ry     beta= 0.70
     Davidson diagonalization with overlap
     ethr =  1.09E-09,  avg # of iterations =  2.3

     negative rho (up, down):  2.485E-03 0.000E+00

     total cpu time spent up to now is       46.9 secs

     total energy              =    -505.04059728 Ry
     estimated scf accuracy    <       0.00000018 Ry

     iteration # 14     ecut=    40.00 Ry     beta= 0.70
     Davidson diagonalization with overlap
     ethr =  4.21E-10,  avg # of iterations =  4.0

     negative rho (up, down):  2.485E-03 0.000E+00

     total cpu time spent up to now is       49.8 secs

     End of self-consistent calculation

          k = 0.0000 0.0000 0.0000 (  5033 PWs)   bands (ev):

   -57.1786 -57.1091 -33.7276 -33.3604 -33.2349 -33.2349 -33.1872 -33.1872
   -24.6883 -24.6648 -11.3406  -7.1116  -6.0538  -6.0164  -6.0164  -5.8795
    -5.8795  -3.3052  -2.0566  -2.0566   0.4922   0.4922   0.7039   2.0898
     2.0898

          k = 0.0000 0.1924 0.0000 (  5028 PWs)   bands (ev):

   -57.1614 -57.1000 -33.6847 -33.4237 -33.2990 -33.2715 -33.2678 -33.1990
   -24.6346 -24.6210 -11.0642  -6.8112  -6.4890  -6.3058  -6.0112  -5.9213
    -5.8240  -3.1726  -2.8741  -2.2261  -0.0150   0.9419   1.0597   1.9825
     2.0765

          k = 0.0000 0.3849 0.0000 (  5056 PWs)   bands (ev):

   -57.1243 -57.0842 -33.6434 -33.5992 -33.4563 -33.3270 -33.3034 -33.2289
   -24.5397 -24.5379 -10.4367  -6.9429  -6.7078  -6.4034  -6.2323  -6.0575
    -6.0151  -3.8338  -3.0396  -2.3718  -0.8624   1.8526   1.8720   2.1646
     2.4393

          k = 0.0000-0.5773 0.0000 (  5064 PWs)   bands (ev):

   -57.1025 -57.0795 -33.7332 -33.6524 -33.4445 -33.3550 -33.3270 -33.2451
   -24.5010 -24.4956 -10.0328  -7.3544  -7.0169  -6.2885  -6.1596  -6.1158
    -6.0552  -4.2011  -2.9096  -2.3855  -1.2286   2.0362   2.4215   2.6775
     2.7949

          k = 0.1667 0.0962 0.0000 (  5028 PWs)   bands (ev):

   -57.1614 -57.1000 -33.6847 -33.4237 -33.2990 -33.2715 -33.2678 -33.1990
   -24.6346 -24.6210 -11.0642  -6.8112  -6.4890  -6.3058  -6.0112  -5.9213
    -5.8240  -3.1726  -2.8740  -2.2261  -0.0150   0.9419   1.0597   1.9826
     2.0768

          k = 0.1667 0.2887 0.0000 (  5048 PWs)   bands (ev):

   -57.1341 -57.0877 -33.6298 -33.5347 -33.4431 -33.3084 -33.2952 -33.2472
   -24.5609 -24.5580 -10.6075  -6.7258  -6.6266  -6.4189  -6.2656  -6.0753
    -5.9204  -3.5194  -3.0988  -2.7629   0.2745   0.4168   1.9619   2.2960
     2.3670

          k = 0.1667 0.4811 0.0000 (  5065 PWs)   bands (ev):

   -57.1026 -57.0794 -33.6712 -33.6195 -33.4577 -33.4026 -33.3211 -33.2912
   -24.4978 -24.4946 -10.0559  -7.0531  -6.9489  -6.2999  -6.2338  -6.2140
    -6.1122  -4.0465  -3.1512  -2.9616  -0.1328   1.4500   2.1334   2.4832
     2.5589

          k = 0.1667-0.4811 0.0000 (  5065 PWs)   bands (ev):

   -57.1026 -57.0794 -33.6712 -33.6195 -33.4577 -33.4026 -33.3211 -33.2912
   -24.4978 -24.4946 -10.0559  -7.0531  -6.9489  -6.2999  -6.2338  -6.2140
    -6.1122  -4.0465  -3.1512  -2.9616  -0.1328   1.4501   2.1334   2.4832
     2.5589

          k = 0.1667-0.2887 0.0000 (  5048 PWs)   bands (ev):

   -57.1341 -57.0877 -33.6298 -33.5347 -33.4431 -33.3084 -33.2952 -33.2472
   -24.5609 -24.5580 -10.6075  -6.7258  -6.6266  -6.4189  -6.2656  -6.0753
    -5.9204  -3.5194  -3.0988  -2.7629   0.2745   0.4169   1.9619   2.2961
     2.3667

          k = 0.1667-0.0962 0.0000 (  5028 PWs)   bands (ev):

   -57.1614 -57.1000 -33.6847 -33.4237 -33.2990 -33.2715 -33.2678 -33.1990
   -24.6346 -24.6210 -11.0642  -6.8112  -6.4890  -6.3058  -6.0112  -5.9213
    -5.8240  -3.1726  -2.8741  -2.2261  -0.0150   0.9419   1.0597   1.9825
     2.0765

          k = 0.3333 0.1925 0.0000 (  5056 PWs)   bands (ev):

   -57.1243 -57.0842 -33.6434 -33.5992 -33.4563 -33.3270 -33.3034 -33.2289
   -24.5397 -24.5379 -10.4367  -6.9429  -6.7078  -6.4034  -6.2323  -6.0575
    -6.0152  -3.8338  -3.0396  -2.3718  -0.8624   1.8526   1.8717   2.1646
     2.4392

          k = 0.3333 0.3849 0.0000 (  5065 PWs)   bands (ev):

   -57.1026 -57.0794 -33.6712 -33.6195 -33.4577 -33.4026 -33.3211 -33.2912
   -24.4978 -24.4946 -10.0559  -7.0531  -6.9489  -6.2999  -6.2338  -6.2140
    -6.1122  -4.0465  -3.1512  -2.9616  -0.1328   1.4500   2.1334   2.4832
     2.5589

          k = 0.3333 0.5773 0.0000 (  5022 PWs)   bands (ev):

   -57.0844 -57.0842 -33.5988 -33.5988 -33.5653 -33.4128 -33.3464 -33.3463
   -24.4743 -24.4741  -9.8603  -6.8878  -6.8758  -6.5167  -6.5165  -6.1316
    -6.1314  -3.8764  -3.8760  -2.9335   0.9363   1.5418   1.5420   2.4781
     2.4940

          k = 0.3333-0.3849 0.0000 (  5065 PWs)   bands (ev):

   -57.1026 -57.0794 -33.6712 -33.6195 -33.4577 -33.4026 -33.3211 -33.2912
   -24.4978 -24.4946 -10.0559  -7.0531  -6.9489  -6.2999  -6.2338  -6.2140
    -6.1122  -4.0465  -3.1512  -2.9616  -0.1328   1.4501   2.1334   2.4832
     2.5589

          k = 0.3333-0.1924 0.0000 (  5056 PWs)   bands (ev):

   -57.1243 -57.0842 -33.6434 -33.5992 -33.4563 -33.3270 -33.3034 -33.2289
   -24.5397 -24.5379 -10.4367  -6.9429  -6.7078  -6.4034  -6.2323  -6.0575
    -6.0152  -3.8338  -3.0396  -2.3718  -0.8624   1.8526   1.8717   2.1646
     2.4392

          k = 0.3333 0.0000 0.0000 (  5048 PWs)   bands (ev):

   -57.1341 -57.0877 -33.6298 -33.5347 -33.4431 -33.3084 -33.2952 -33.2472
   -24.5609 -24.5580 -10.6075  -6.7258  -6.6266  -6.4189  -6.2656  -6.0753
    -5.9204  -3.5194  -3.0988  -2.7629   0.2745   0.4168   1.9619   2.2961
     2.3668

          k =-0.5000-0.2887 0.0000 (  5064 PWs)   bands (ev):

   -57.1025 -57.0795 -33.7332 -33.6524 -33.4445 -33.3550 -33.3270 -33.2451
   -24.5010 -24.4956 -10.0328  -7.3544  -7.0169  -6.2885  -6.1596  -6.1158
    -6.0552  -4.2011  -2.9096  -2.3856  -1.2286   2.0362   2.4215   2.6776
     2.7949

          k =-0.5000-0.0962 0.0000 (  5065 PWs)   bands (ev):

   -57.1026 -57.0794 -33.6712 -33.6195 -33.4577 -33.4026 -33.3211 -33.2912
   -24.4978 -24.4946 -10.0559  -7.0531  -6.9489  -6.2999  -6.2338  -6.2140
    -6.1122  -4.0465  -3.1512  -2.9616  -0.1328   1.4500   2.1334   2.4832
     2.5589

          k =-0.5000 0.0962 0.0000 (  5065 PWs)   bands (ev):

   -57.1026 -57.0794 -33.6712 -33.6195 -33.4577 -33.4026 -33.3211 -33.2912
   -24.4978 -24.4946 -10.0559  -7.0531  -6.9489  -6.2999  -6.2338  -6.2140
    -6.1122  -4.0465  -3.1512  -2.9616  -0.1328   1.4500   2.1334   2.4832
     2.5589

          k =-0.5000-0.8660 0.0000 (  5064 PWs)   bands (ev):

   -57.1025 -57.0795 -33.7332 -33.6524 -33.4445 -33.3550 -33.3270 -33.2451
   -24.5010 -24.4956 -10.0328  -7.3544  -7.0169  -6.2885  -6.1596  -6.1158
    -6.0552  -4.2011  -2.9096  -2.3855  -1.2286   2.0362   2.4216   2.6790
     2.7952

     the Fermi energy is     0.4327 ev

!    total energy              =    -505.04059732 Ry
     total all-electron energy =     -3891.475956 Ry
     estimated scf accuracy    <          4.0E-09 Ry
     smearing contrib. (-TS)   =       0.00028348 Ry
     internal energy E=F+TS    =    -505.04088080 Ry

     The total energy is F=E-TS. E is the sum of the following terms:
     one-electron contribution =   -2942.10994060 Ry
     hartree contribution      =    1476.25552905 Ry
     xc contribution           =     -61.06905499 Ry
     ewald contribution        =    1181.05480293 Ry
     one-center paw contrib.   =    -159.17221720 Ry

     convergence has been achieved in  14 iterations

     Writing all to output data dir ./tmp/ti2cf2.save/ :
     XML data file, charge density, pseudopotentials, collected wavefunctions

     init_run     :      2.09s CPU      2.08s WALL (       1 calls)
     electrons    :     46.76s CPU     47.58s WALL (       1 calls)

     Called by init_run:
     wfcinit      :      0.89s CPU      0.84s WALL (       1 calls)
     potinit      :      0.58s CPU      0.60s WALL (       1 calls)
     hinit0       :      0.50s CPU      0.46s WALL (       1 calls)

     Called by electrons:
     c_bands      :     33.38s CPU     33.85s WALL (      14 calls)
     sum_band     :      6.00s CPU      6.32s WALL (      14 calls)
     v_of_rho     :      0.61s CPU      0.60s WALL (      15 calls)
     newd         :      2.07s CPU      2.50s WALL (      15 calls)
     PAW_pot      :      4.94s CPU      4.65s WALL (      15 calls)
     mix_rho      :      0.09s CPU      0.09s WALL (      14 calls)

     Called by c_bands:
     init_us_2    :      0.41s CPU      0.38s WALL (     580 calls)
     cegterg      :     32.53s CPU     33.06s WALL (     280 calls)

     Called by *egterg:
     cdiaghg      :      1.21s CPU      1.13s WALL (    1402 calls)
     h_psi        :     17.68s CPU     19.28s WALL (    1422 calls)
     s_psi        :      2.92s CPU      2.71s WALL (    1422 calls)
     g_psi        :      0.06s CPU      0.06s WALL (    1122 calls)

     Called by h_psi:
     h_psi:calbec :      3.60s CPU      3.42s WALL (    1422 calls)
     vloc_psi     :     10.97s CPU     12.98s WALL (    1422 calls)
                                        0.00s GPU  (    1422 calls)
     add_vuspsi   :      3.01s CPU      2.80s WALL (    1422 calls)

     General routines
     calbec       :      4.88s CPU      4.64s WALL (    1702 calls)
     fft          :      0.76s CPU      0.71s WALL (     193 calls)
     ffts         :      0.26s CPU      0.24s WALL (      29 calls)
     fftw         :     11.72s CPU     13.71s WALL (   44182 calls)
     interpolate  :      0.29s CPU      0.26s WALL (      15 calls)

     Parallel routines

     PWSCF        :     49.06s CPU     49.89s WALL


   This run was terminated on:  13:53:50  22Sep2026            

=------------------------------------------------------------------------------=
   JOB DONE.
=------------------------------------------------------------------------------=
