
     Program PWSCF v.7.5 starts on 22Sep2026 at 16:22:30 

     This program is part of the open-source Quantum ESPRESSO suite
     for quantum simulation of materials; please cite
         "P. Giannozzi et al., J. Phys.:Condens. Matter 21 395502 (2009);
         "P. Giannozzi et al., J. Phys.:Condens. Matter 29 465901 (2017);
         "P. Giannozzi et al., J. Chem. Phys. 152 154105 (2020);
          URL http://www.quantum-espresso.org", 
     in publications or presentations arising from this work. More details at
     http://www.quantum-espresso.org/quote

     Parallel version (MPI), running on     8 processors

     MPI processes distributed on     1 nodes
     6095 MiB available memory on the printing compute node when the environment starts

     Waiting for input...
     Reading input from standard input

     Current dimensions of program PWSCF are:
     Max number of different atomic species (ntypx) = 10
     Max number of k-points (npk) =  40000
     Max angular momentum in pseudopotentials (lmaxx) =  4

     R & G space division:  proc/nbgrp/npool/nimage =       8
     Subspace diagonalization in iterative solution of the eigenvalue problem:
     a serial algorithm will be used


     Parallelization info
     --------------------
     sticks:   dense  smooth     PW     G-vecs:    dense   smooth      PW
     Min          92      45     15                14304     5047    1005
     Max          94      46     16                14317     5066    1034
     Sum         745     367    121               114499    40467    8113

     Using Slab Decomposition



     bravais-lattice index     =            0
     lattice parameter (alat)  =       5.7603  a.u.
     unit-cell volume          =    1183.0597 (a.u.)^3
     number of atoms/cell      =            5
     number of atomic types    =            3
     number of electrons       =        42.00
     number of Kohn-Sham states=           25
     kinetic-energy cutoff     =      40.0000  Ry
     charge density cutoff     =     320.0000  Ry
     scf convergence threshold =      1.0E-08
     mixing beta               =       0.7000
     number of iterations used =            8  plain     mixing
     Exchange-correlation= PBE
                           (   1   4   3   4   0   0   0)

     celldm(1)=   5.760320  celldm(2)=   0.000000  celldm(3)=   0.000000
     celldm(4)=   0.000000  celldm(5)=   0.000000  celldm(6)=   0.000000

     crystal axes: (cart. coord. in units of alat)
               a(1) = (   1.000000   0.000000   0.000000 )  
               a(2) = (  -0.500002   0.866027   0.000000 )  
               a(3) = (   0.000000   0.000000   7.147190 )  

     reciprocal axes: (cart. coord. in units 2 pi/alat)
               b(1) = (  1.000000  0.577351 -0.000000 )  
               b(2) = (  0.000000  1.154698  0.000000 )  
               b(3) = (  0.000000 -0.000000  0.139915 )  


     PseudoPot. # 1 for Ti read from file:
     ../pseudopotential/Ti.upf
     MD5 check sum: 0b3868d933a8ea9356727c02a1b807de
     Pseudo is Norm-conserving + core correction, Zval = 12.0
     Generated using ONCVPSP code by D. R. Hamann
     Using radial grid of 1586 points,  6 beta functions with: 
                l(1) =   0
                l(2) =   0
                l(3) =   1
                l(4) =   1
                l(5) =   2
                l(6) =   2

     PseudoPot. # 2 for C  read from file:
     ../pseudopotential/C.upf
     MD5 check sum: 34a24e64c0a39f27c6c36b90a16ac686
     Pseudo is Norm-conserving + core correction, Zval =  4.0
     Generated using ONCVPSP code by D. R. Hamann
     Using radial grid of 1248 points,  4 beta functions with: 
                l(1) =   0
                l(2) =   0
                l(3) =   1
                l(4) =   1

     PseudoPot. # 3 for F  read from file:
     ../pseudopotential/F.upf
     MD5 check sum: e79d493a50113cefedcefee2f1adb6e7
     Pseudo is Norm-conserving + core correction, Zval =  7.0
     Generated using ONCVPSP code by D. R. Hamann
     Using radial grid of  832 points,  5 beta functions with: 
                l(1) =   0
                l(2) =   0
                l(3) =   1
                l(4) =   1
                l(5) =   2

     atomic species   valence    mass     pseudopotential
     Ti               12.00    47.86700     Ti( 1.00)
     C                 4.00    12.01100     C ( 1.00)
     F                 7.00    18.99800     F ( 1.00)

     No symmetry found



   Cartesian axes

     site n.     atom                  positions (alat units)
         1        Ti     tau(   1) = (  -0.0000003   0.5773513   0.5715047  )
         2        Ti     tau(   2) = (   0.5000011   0.2886759   1.3267197  )
         3        C      tau(   3) = (   0.0000011  -0.0000000   0.9491568  )
         4        F      tau(   4) = (  -0.0000000   0.5773514   1.7353267  )
         5        F      tau(   5) = (   0.5000015   0.2886757   0.1628986  )

     number of k points=    20  Marzari-Vanderbilt smearing, width (Ry)=  0.0200
                       cart. coord. in units 2pi/alat
        k(    1) = (   0.0000000   0.0000000   0.0000000), wk =   0.0555556
        k(    2) = (   0.0000000   0.1924497   0.0000000), wk =   0.1111111
        k(    3) = (   0.0000000   0.3848994   0.0000000), wk =   0.1111111
        k(    4) = (   0.0000000  -0.5773491   0.0000000), wk =   0.0555556
        k(    5) = (   0.1666667   0.0962252   0.0000000), wk =   0.1111111
        k(    6) = (   0.1666667   0.2886749   0.0000000), wk =   0.1111111
        k(    7) = (   0.1666667   0.4811246   0.0000000), wk =   0.1111111
        k(    8) = (   0.1666667  -0.4811239   0.0000000), wk =   0.1111111
        k(    9) = (   0.1666667  -0.2886742   0.0000000), wk =   0.1111111
        k(   10) = (   0.1666667  -0.0962245   0.0000000), wk =   0.1111111
        k(   11) = (   0.3333333   0.1924503   0.0000000), wk =   0.1111111
        k(   12) = (   0.3333333   0.3849000   0.0000000), wk =   0.1111111
        k(   13) = (   0.3333333   0.5773497   0.0000000), wk =   0.1111111
        k(   14) = (   0.3333333  -0.3848988   0.0000000), wk =   0.1111111
        k(   15) = (   0.3333333  -0.1924491   0.0000000), wk =   0.1111111
        k(   16) = (   0.3333333   0.0000006   0.0000000), wk =   0.1111111
        k(   17) = (  -0.5000000  -0.2886755   0.0000000), wk =   0.0555556
        k(   18) = (  -0.5000000  -0.0962258   0.0000000), wk =   0.1111111
        k(   19) = (  -0.5000000   0.0962239   0.0000000), wk =   0.1111111
        k(   20) = (  -0.5000000  -0.8660246   0.0000000), wk =   0.0555556

     Dense  grid:   114499 G-vectors     FFT dimensions: (  36,  36, 240)

     Smooth grid:    40467 G-vectors     FFT dimensions: (  24,  24, 180)

     Estimated max dynamical RAM per process >      20.57 MB

     Estimated total dynamical RAM >     164.52 MB

     Initial potential from superposition of free atoms

     starting charge      41.9968, renormalised to      42.0000

     negative rho (up, down):  8.000E-05 0.000E+00
     Starting wfcs are   32 randomized atomic wfcs

     total cpu time spent up to now is        1.0 secs

     Self-consistent Calculation

     iteration #  1     ecut=    40.00 Ry     beta= 0.70
     Davidson diagonalization with overlap
     ethr =  1.00E-02,  avg # of iterations =  2.6

     total cpu time spent up to now is        1.9 secs

     total energy              =    -346.55629993 Ry
     estimated scf accuracy    <       1.72065773 Ry

     iteration #  2     ecut=    40.00 Ry     beta= 0.70
     Davidson diagonalization with overlap
     ethr =  4.10E-03,  avg # of iterations =  5.0

     negative rho (up, down):  8.035E-04 0.000E+00

     total cpu time spent up to now is        3.2 secs

     total energy              =    -346.63754536 Ry
     estimated scf accuracy    <       4.63708954 Ry

     iteration #  3     ecut=    40.00 Ry     beta= 0.70
     Davidson diagonalization with overlap
     ethr =  4.10E-03,  avg # of iterations =  5.0

     negative rho (up, down):  5.779E-04 0.000E+00

     total cpu time spent up to now is        4.1 secs

     total energy              =    -347.45940280 Ry
     estimated scf accuracy    <       0.04867941 Ry

     iteration #  4     ecut=    40.00 Ry     beta= 0.70
     Davidson diagonalization with overlap
     ethr =  1.16E-04,  avg # of iterations =  3.2

     negative rho (up, down):  3.301E-04 0.000E+00

     total cpu time spent up to now is        5.1 secs

     total energy              =    -347.46241369 Ry
     estimated scf accuracy    <       0.02453147 Ry

     iteration #  5     ecut=    40.00 Ry     beta= 0.70
     Davidson diagonalization with overlap
     ethr =  5.84E-05,  avg # of iterations =  7.8

     negative rho (up, down):  3.846E-06 0.000E+00

     total cpu time spent up to now is        6.3 secs

     total energy              =    -347.45172470 Ry
     estimated scf accuracy    <       0.25294725 Ry

     iteration #  6     ecut=    40.00 Ry     beta= 0.70
     Davidson diagonalization with overlap
     ethr =  5.84E-05,  avg # of iterations =  8.1

     total cpu time spent up to now is        7.6 secs

     total energy              =    -347.46898306 Ry
     estimated scf accuracy    <       0.00483404 Ry

     iteration #  7     ecut=    40.00 Ry     beta= 0.70
     Davidson diagonalization with overlap
     ethr =  1.15E-05,  avg # of iterations =  5.2

     total cpu time spent up to now is        8.4 secs

     total energy              =    -347.46930038 Ry
     estimated scf accuracy    <       0.00024052 Ry

     iteration #  8     ecut=    40.00 Ry     beta= 0.70
     Davidson diagonalization with overlap
     ethr =  5.73E-07,  avg # of iterations =  6.3

     total cpu time spent up to now is       11.9 secs

     total energy              =    -347.46939573 Ry
     estimated scf accuracy    <       0.00015652 Ry

     iteration #  9     ecut=    40.00 Ry     beta= 0.70
     Davidson diagonalization with overlap
     ethr =  3.73E-07,  avg # of iterations =  1.1

     total cpu time spent up to now is       12.7 secs

     total energy              =    -347.46939485 Ry
     estimated scf accuracy    <       0.00003629 Ry

     iteration # 10     ecut=    40.00 Ry     beta= 0.70
     Davidson diagonalization with overlap
     ethr =  8.64E-08,  avg # of iterations =  5.2

     total cpu time spent up to now is       13.6 secs

     total energy              =    -347.46939889 Ry
     estimated scf accuracy    <       0.00000014 Ry

     iteration # 11     ecut=    40.00 Ry     beta= 0.70
     Davidson diagonalization with overlap
     ethr =  3.39E-10,  avg # of iterations =  7.7

     total cpu time spent up to now is       15.2 secs

     total energy              =    -347.46939951 Ry
     estimated scf accuracy    <       0.00000030 Ry

     iteration # 12     ecut=    40.00 Ry     beta= 0.70
     Davidson diagonalization with overlap
     ethr =  3.39E-10,  avg # of iterations =  1.8

     total cpu time spent up to now is       16.0 secs

     total energy              =    -347.46939945 Ry
     estimated scf accuracy    <       0.00000036 Ry

     iteration # 13     ecut=    40.00 Ry     beta= 0.70
     Davidson diagonalization with overlap
     ethr =  3.39E-10,  avg # of iterations =  3.7

     total cpu time spent up to now is       16.8 secs

     End of self-consistent calculation

          k = 0.0000 0.0000 0.0000 (  5033 PWs)   bands (ev):

   -57.6859 -57.6314 -34.4789 -34.1369 -34.0086 -34.0086 -33.9616 -33.9616
   -25.6372 -25.6187 -11.2281  -7.1191  -6.1050  -6.0521  -6.0521  -5.9232
    -5.9232  -3.1598  -1.7113  -1.7113   1.0165   1.0165   1.2335   2.7861
     2.7863

          k = 0.0000 0.1924 0.0000 (  5028 PWs)   bands (ev):

   -57.6780 -57.6098 -34.4371 -34.1910 -34.0687 -34.0448 -34.0383 -33.9736
   -25.5897 -25.5778 -10.9428  -6.8401  -6.5410  -6.3565  -6.0639  -5.9653
    -5.8819  -2.9863  -2.5968  -1.8943   0.4191   1.5053   1.5911   2.6098
     2.6899

          k = 0.0000 0.3849 0.0000 (  5056 PWs)   bands (ev):

   -57.6467 -57.5963 -34.3911 -34.3521 -34.2195 -34.0929 -34.0801 -34.0024
   -25.5044 -25.5027 -10.3009  -7.0233  -6.7945  -6.4489  -6.2769  -6.1259
    -6.0764  -3.6376  -2.8242  -2.0654  -0.4943   2.4447   2.5044   2.7854
     3.0889

          k = 0.0000-0.5773 0.0000 (  5064 PWs)   bands (ev):

   -57.6273 -57.5916 -34.4722 -34.3990 -34.2117 -34.1195 -34.1032 -34.0187
   -25.4696 -25.4643  -9.8874  -7.4070  -7.1102  -6.3333  -6.2210  -6.1994
    -6.1365  -4.0529  -2.6744  -2.0952  -0.8844   2.6844   3.0760   3.4523
     3.5419

          k = 0.1667 0.0962 0.0000 (  5028 PWs)   bands (ev):

   -57.6780 -57.6098 -34.4371 -34.1910 -34.0687 -34.0448 -34.0383 -33.9736
   -25.5897 -25.5778 -10.9428  -6.8401  -6.5410  -6.3565  -6.0639  -5.9653
    -5.8819  -2.9863  -2.5968  -1.8943   0.4191   1.5053   1.5911   2.6098
     2.6899

          k = 0.1667 0.2887 0.0000 (  5048 PWs)   bands (ev):

   -57.6551 -57.5983 -34.3833 -34.2911 -34.2042 -34.0762 -34.0712 -34.0187
   -25.5232 -25.5215 -10.4744  -6.8072  -6.7128  -6.4751  -6.3169  -6.1212
    -5.9642  -3.2948  -2.8934  -2.4703   0.7245   0.9049   2.6076   3.0155
     3.0466

          k = 0.1667 0.4811 0.0000 (  5065 PWs)   bands (ev):

   -57.6263 -57.5921 -34.4154 -34.3693 -34.2209 -34.1666 -34.0937 -34.0633
   -25.4668 -25.4638  -9.9104  -7.1328  -7.0399  -6.3576  -6.3029  -6.2859
    -6.1840  -3.8788  -2.8949  -2.7254   0.2913   1.9946   2.7998   3.1794
     3.3011

          k = 0.1667-0.4811 0.0000 (  5065 PWs)   bands (ev):

   -57.6263 -57.5921 -34.4154 -34.3693 -34.2209 -34.1666 -34.0937 -34.0633
   -25.4668 -25.4638  -9.9104  -7.1328  -7.0399  -6.3576  -6.3030  -6.2859
    -6.1840  -3.8788  -2.8949  -2.7254   0.2913   1.9946   2.7998   3.1794
     3.3010

          k = 0.1667-0.2887 0.0000 (  5048 PWs)   bands (ev):

   -57.6551 -57.5983 -34.3833 -34.2911 -34.2042 -34.0762 -34.0712 -34.0187
   -25.5232 -25.5215 -10.4744  -6.8072  -6.7128  -6.4751  -6.3169  -6.1212
    -5.9642  -3.2948  -2.8933  -2.4703   0.7245   0.9049   2.6076   3.0170
     3.0471

          k = 0.1667-0.0962 0.0000 (  5028 PWs)   bands (ev):

   -57.6780 -57.6098 -34.4371 -34.1910 -34.0687 -34.0448 -34.0383 -33.9736
   -25.5897 -25.5778 -10.9428  -6.8401  -6.5410  -6.3565  -6.0639  -5.9653
    -5.8819  -2.9863  -2.5968  -1.8943   0.4191   1.5053   1.5911   2.6098
     2.6899

          k = 0.3333 0.1925 0.0000 (  5056 PWs)   bands (ev):

   -57.6467 -57.5963 -34.3911 -34.3521 -34.2195 -34.0929 -34.0801 -34.0024
   -25.5044 -25.5027 -10.3009  -7.0233  -6.7945  -6.4489  -6.2769  -6.1259
    -6.0764  -3.6376  -2.8242  -2.0655  -0.4943   2.4447   2.5044   2.7854
     3.0889

          k = 0.3333 0.3849 0.0000 (  5065 PWs)   bands (ev):

   -57.6263 -57.5921 -34.4154 -34.3693 -34.2209 -34.1666 -34.0937 -34.0633
   -25.4668 -25.4638  -9.9104  -7.1328  -7.0399  -6.3576  -6.3029  -6.2859
    -6.1840  -3.8788  -2.8949  -2.7254   0.2913   1.9946   2.7998   3.1794
     3.3011

          k = 0.3333 0.5773 0.0000 (  5022 PWs)   bands (ev):

   -57.5898 -57.5897 -34.3491 -34.3491 -34.3116 -34.1711 -34.1196 -34.1195
   -25.4444 -25.4440  -9.7062  -6.9585  -6.9323  -6.5598  -6.5595  -6.1879
    -6.1876  -3.6650  -3.6646  -2.6854   1.4437   2.1368   2.1370   3.2368
     3.2552

          k = 0.3333-0.3849 0.0000 (  5065 PWs)   bands (ev):

   -57.6263 -57.5921 -34.4154 -34.3693 -34.2209 -34.1666 -34.0937 -34.0633
   -25.4668 -25.4638  -9.9104  -7.1328  -7.0399  -6.3576  -6.3030  -6.2859
    -6.1840  -3.8788  -2.8949  -2.7254   0.2913   1.9946   2.7998   3.1794
     3.3011

          k = 0.3333-0.1924 0.0000 (  5056 PWs)   bands (ev):

   -57.6467 -57.5963 -34.3911 -34.3521 -34.2195 -34.0929 -34.0801 -34.0024
   -25.5044 -25.5027 -10.3009  -7.0233  -6.7945  -6.4489  -6.2769  -6.1259
    -6.0764  -3.6376  -2.8242  -2.0654  -0.4943   2.4447   2.5044   2.7854
     3.0889

          k = 0.3333 0.0000 0.0000 (  5048 PWs)   bands (ev):

   -57.6551 -57.5983 -34.3833 -34.2911 -34.2042 -34.0762 -34.0712 -34.0187
   -25.5232 -25.5215 -10.4744  -6.8073  -6.7128  -6.4751  -6.3169  -6.1212
    -5.9642  -3.2948  -2.8934  -2.4703   0.7245   0.9049   2.6076   3.0168
     3.0467

          k =-0.5000-0.2887 0.0000 (  5064 PWs)   bands (ev):

   -57.6273 -57.5916 -34.4722 -34.3990 -34.2117 -34.1195 -34.1032 -34.0187
   -25.4696 -25.4643  -9.8874  -7.4070  -7.1103  -6.3333  -6.2210  -6.1994
    -6.1365  -4.0529  -2.6744  -2.0953  -0.8844   2.6844   3.0760   3.4523
     3.5419

          k =-0.5000-0.0962 0.0000 (  5065 PWs)   bands (ev):

   -57.6263 -57.5921 -34.4154 -34.3693 -34.2209 -34.1666 -34.0937 -34.0633
   -25.4668 -25.4638  -9.9104  -7.1328  -7.0399  -6.3576  -6.3029  -6.2859
    -6.1840  -3.8788  -2.8949  -2.7254   0.2913   1.9946   2.7998   3.1794
     3.3010

          k =-0.5000 0.0962 0.0000 (  5065 PWs)   bands (ev):

   -57.6263 -57.5921 -34.4154 -34.3693 -34.2209 -34.1666 -34.0937 -34.0633
   -25.4668 -25.4638  -9.9104  -7.1328  -7.0399  -6.3576  -6.3029  -6.2859
    -6.1840  -3.8788  -2.8949  -2.7254   0.2913   1.9946   2.7998   3.1794
     3.3011

          k =-0.5000-0.8660 0.0000 (  5064 PWs)   bands (ev):

   -57.6273 -57.5916 -34.4722 -34.3990 -34.2117 -34.1195 -34.1032 -34.0187
   -25.4696 -25.4643  -9.8874  -7.4070  -7.1103  -6.3333  -6.2210  -6.1994
    -6.1365  -4.0529  -2.6744  -2.0952  -0.8844   2.6844   3.0760   3.4524
     3.5419

     the Fermi energy is     0.9185 ev

!    total energy              =    -347.46939948 Ry
     estimated scf accuracy    <          4.4E-09 Ry
     smearing contrib. (-TS)   =       0.00004966 Ry
     internal energy E=F+TS    =    -347.46944913 Ry

     The total energy is F=E-TS. E is the sum of the following terms:
     one-electron contribution =   -2940.09080401 Ry
     hartree contribution      =    1472.61920615 Ry
     xc contribution           =     -61.05265421 Ry
     ewald contribution        =    1181.05480293 Ry

     convergence has been achieved in  13 iterations

     Writing all to output data dir ./tmp/ti2cf2_eps.save/ :
     XML data file, charge density, pseudopotentials, collected wavefunctions

     init_run     :      0.94s CPU      0.94s WALL (       1 calls)
     electrons    :     13.95s CPU     15.83s WALL (       1 calls)

     Called by init_run:
     wfcinit      :      0.32s CPU      0.34s WALL (       1 calls)
     potinit      :      0.25s CPU      0.24s WALL (       1 calls)
     hinit0       :      0.35s CPU      0.33s WALL (       1 calls)

     Called by electrons:
     c_bands      :     12.80s CPU     14.63s WALL (      13 calls)
     sum_band     :      0.89s CPU      0.91s WALL (      13 calls)
     v_of_rho     :      0.22s CPU      0.24s WALL (      14 calls)
     mix_rho      :      0.03s CPU      0.03s WALL (      13 calls)

     Called by c_bands:
     init_us_2    :      0.14s CPU      0.14s WALL (     540 calls)
     cegterg      :     12.42s CPU     14.27s WALL (     260 calls)

     Called by *egterg:
     cdiaghg      :      0.93s CPU      0.88s WALL (    1514 calls)
     h_psi        :      7.54s CPU      7.38s WALL (    1534 calls)
     g_psi        :      0.02s CPU      0.02s WALL (    1254 calls)

     Called by h_psi:
     h_psi:calbec :      1.60s CPU      1.59s WALL (    1534 calls)
     vloc_psi     :      4.70s CPU      4.61s WALL (    1534 calls)
                                        0.00s GPU  (    1534 calls)
     add_vuspsi   :      1.20s CPU      1.16s WALL (    1534 calls)

     General routines
     calbec       :      1.60s CPU      1.58s WALL (    1534 calls)
     fft          :      0.42s CPU      0.41s WALL (     166 calls)
     ffts         :      0.23s CPU      0.22s WALL (      27 calls)
     fftw         :      5.08s CPU      5.01s WALL (   43292 calls)
     interpolate  :      0.24s CPU      0.23s WALL (      14 calls)

     Parallel routines

     PWSCF        :     14.99s CPU     16.89s WALL


   This run was terminated on:  16:22:46  22Sep2026            

=------------------------------------------------------------------------------=
   JOB DONE.
=------------------------------------------------------------------------------=
