
     Program PWSCF v.7.5 starts on 22Sep2026 at 15: 5:49 

     This program is part of the open-source Quantum ESPRESSO suite
     for quantum simulation of materials; please cite
         "P. Giannozzi et al., J. Phys.:Condens. Matter 21 395502 (2009);
         "P. Giannozzi et al., J. Phys.:Condens. Matter 29 465901 (2017);
         "P. Giannozzi et al., J. Chem. Phys. 152 154105 (2020);
          URL http://www.quantum-espresso.org", 
     in publications or presentations arising from this work. More details at
     http://www.quantum-espresso.org/quote

     Parallel version (MPI), running on     8 processors

     MPI processes distributed on     1 nodes
     6407 MiB available memory on the printing compute node when the environment starts

     Waiting for input...
     Reading input from standard input
Warning: card &IONS ignored

     Current dimensions of program PWSCF are:
     Max number of different atomic species (ntypx) = 10
     Max number of k-points (npk) =  40000
     Max angular momentum in pseudopotentials (lmaxx) =  4
     file Ti.pbe-spn-kjpaw_psl.1.0.0.UPF: wavefunction(s)  3S 3P 3D renormalized
     file C.pbe-n-kjpaw_psl.1.0.0.UPF: wavefunction(s)  2S 2P renormalized
     file O.pbe-n-kjpaw_psl.1.0.0.UPF: wavefunction(s)  2S 2P renormalized

     Atomic positions and unit cell read from directory:
     ./tmp/ti2co2.save/


     R & G space division:  proc/nbgrp/npool/nimage =       8
     Subspace diagonalization in iterative solution of the eigenvalue problem:
     a serial algorithm will be used


     Parallelization info
     --------------------
     sticks:   dense  smooth     PW     G-vecs:    dense   smooth      PW
     Min          91      45     14                13919     4919     847
     Max          92      46     17                13932     4944     862
     Sum         733     361    121               111423    39451    6847

     Using Slab Decomposition



     bravais-lattice index     =            0
     lattice parameter (alat)  =       5.7299  a.u.
     unit-cell volume          =    1151.2252 (a.u.)^3
     number of atoms/cell      =            5
     number of atomic types    =            3
     number of electrons       =        40.00
     number of Kohn-Sham states=           24
     kinetic-energy cutoff     =      40.0000  Ry
     charge density cutoff     =     320.0000  Ry
     Exchange-correlation= SLA  PW   PBX  PBC
                           (   1   4   3   4   0   0   0)

     celldm(1)=   5.729914  celldm(2)=   0.000000  celldm(3)=   0.000000
     celldm(4)=   0.000000  celldm(5)=   0.000000  celldm(6)=   0.000000

     crystal axes: (cart. coord. in units of alat)
               a(1) = (   1.000000   0.000000   0.000000 )  
               a(2) = (  -0.500000   0.866025   0.000000 )  
               a(3) = (   0.000000   0.000000   7.066191 )  

     reciprocal axes: (cart. coord. in units 2 pi/alat)
               b(1) = (  1.000000  0.577350 -0.000000 )  
               b(2) = (  0.000000  1.154701  0.000000 )  
               b(3) = (  0.000000 -0.000000  0.141519 )  


     PseudoPot. # 1 for Ti read from file:
     ../pseudopotential/Ti.pbe-spn-kjpaw_psl.1.0.0.UPF
     MD5 check sum: 01f69b0d8ba4438b2e03ac6ea4af1c0b
     Pseudo is Projector augmented-wave + core cor, Zval = 12.0
     Generated using &quot;atomic&quot; code by A. Dal Corso  v.6.2.2
     Shape of augmentation charge: PSQ
     Using radial grid of 1177 points,  6 beta functions with: 
                l(1) =   0
                l(2) =   0
                l(3) =   1
                l(4) =   1
                l(5) =   2
                l(6) =   2
     Q(r) pseudized with 0 coefficients 


     PseudoPot. # 2 for C  read from file:
     ../pseudopotential/C.pbe-n-kjpaw_psl.1.0.0.UPF
     MD5 check sum: 5f16ad9a65e90284d1d834d4ab3b0f7d
     Pseudo is Projector augmented-wave + core cor, Zval =  4.0
     Generated using &quot;atomic&quot; code by A. Dal Corso  v.6.3
     Shape of augmentation charge: PSQ
     Using radial grid of 1073 points,  4 beta functions with: 
                l(1) =   0
                l(2) =   0
                l(3) =   1
                l(4) =   1
     Q(r) pseudized with 0 coefficients 


     PseudoPot. # 3 for O  read from file:
     ../pseudopotential/O.pbe-n-kjpaw_psl.1.0.0.UPF
     MD5 check sum: e99d9cef9b487d1ca56f5b95ecd0fd7a
     Pseudo is Projector augmented-wave + core cor, Zval =  6.0
     Generated using &quot;atomic&quot; code by A. Dal Corso  v.6.3
     Shape of augmentation charge: PSQ
     Using radial grid of 1095 points,  4 beta functions with: 
                l(1) =   0
                l(2) =   0
                l(3) =   1
                l(4) =   1
     Q(r) pseudized with 0 coefficients 


     atomic species   valence    mass     pseudopotential
     Ti               12.00    47.86700     Ti( 1.00)
     C                 4.00    12.01100     C ( 1.00)
     O                 6.00    15.99900     O ( 1.00)

     No symmetry found



   Cartesian axes

     site n.     atom                  positions (alat units)
         1        Ti     tau(   1) = (   0.0000000   0.5773480   0.7935739  )
         2        Ti     tau(   2) = (   0.5000000   0.2886740   1.6554160  )
         3        C      tau(   3) = (   0.0000000  -0.0000000   1.2245154  )
         4        O      tau(   4) = (   0.0000000   0.5773480   1.9548814  )
         5        O      tau(   5) = (   0.5000000   0.2886740   0.4940912  )

     number of k points=    61  Marzari-Vanderbilt smearing, width (Ry)=  0.0200
                       cart. coord. in units 2pi/alat
        k(    1) = (   0.0000000   0.0000000   0.0000000), wk =   0.0327869
        k(    2) = (  -0.0166667   0.0288675   0.0000000), wk =   0.0327869
        k(    3) = (  -0.0333333   0.0577350   0.0000000), wk =   0.0327869
        k(    4) = (  -0.0500000   0.0866025   0.0000000), wk =   0.0327869
        k(    5) = (  -0.0666667   0.1154701   0.0000000), wk =   0.0327869
        k(    6) = (  -0.0833333   0.1443376   0.0000000), wk =   0.0327869
        k(    7) = (  -0.1000000   0.1732051   0.0000000), wk =   0.0327869
        k(    8) = (  -0.1166667   0.2020726   0.0000000), wk =   0.0327869
        k(    9) = (  -0.1333333   0.2309401   0.0000000), wk =   0.0327869
        k(   10) = (  -0.1500000   0.2598076   0.0000000), wk =   0.0327869
        k(   11) = (  -0.1666667   0.2886752   0.0000000), wk =   0.0327869
        k(   12) = (  -0.1833333   0.3175427   0.0000000), wk =   0.0327869
        k(   13) = (  -0.2000000   0.3464102   0.0000000), wk =   0.0327869
        k(   14) = (  -0.2166667   0.3752777   0.0000000), wk =   0.0327869
        k(   15) = (  -0.2333333   0.4041452   0.0000000), wk =   0.0327869
        k(   16) = (  -0.2500000   0.4330127   0.0000000), wk =   0.0327869
        k(   17) = (  -0.2666667   0.4618803   0.0000000), wk =   0.0327869
        k(   18) = (  -0.2833333   0.4907478   0.0000000), wk =   0.0327869
        k(   19) = (  -0.3000000   0.5196153   0.0000000), wk =   0.0327869
        k(   20) = (  -0.3166667   0.5484828   0.0000000), wk =   0.0327869
        k(   21) = (  -0.3333333   0.5773503   0.0000000), wk =   0.0327869
        k(   22) = (  -0.3000000   0.5773503   0.0000000), wk =   0.0327869
        k(   23) = (  -0.2666667   0.5773503   0.0000000), wk =   0.0327869
        k(   24) = (  -0.2333333   0.5773503   0.0000000), wk =   0.0327869
        k(   25) = (  -0.2000000   0.5773503   0.0000000), wk =   0.0327869
        k(   26) = (  -0.1666667   0.5773503   0.0000000), wk =   0.0327869
        k(   27) = (  -0.1333333   0.5773503   0.0000000), wk =   0.0327869
        k(   28) = (  -0.1000000   0.5773503   0.0000000), wk =   0.0327869
        k(   29) = (  -0.0666667   0.5773503   0.0000000), wk =   0.0327869
        k(   30) = (  -0.0333333   0.5773503   0.0000000), wk =   0.0327869
        k(   31) = (   0.0000000   0.5773503   0.0000000), wk =   0.0327869
        k(   32) = (   0.0333333   0.5773503   0.0000000), wk =   0.0327869
        k(   33) = (   0.0666667   0.5773503   0.0000000), wk =   0.0327869
        k(   34) = (   0.1000000   0.5773503   0.0000000), wk =   0.0327869
        k(   35) = (   0.1333333   0.5773503   0.0000000), wk =   0.0327869
        k(   36) = (   0.1666667   0.5773503   0.0000000), wk =   0.0327869
        k(   37) = (   0.2000000   0.5773503   0.0000000), wk =   0.0327869
        k(   38) = (   0.2333333   0.5773503   0.0000000), wk =   0.0327869
        k(   39) = (   0.2666667   0.5773503   0.0000000), wk =   0.0327869
        k(   40) = (   0.3000000   0.5773503   0.0000000), wk =   0.0327869
        k(   41) = (   0.3333333   0.5773503   0.0000000), wk =   0.0327869
        k(   42) = (   0.3166667   0.5484828   0.0000000), wk =   0.0327869
        k(   43) = (   0.3000000   0.5196153   0.0000000), wk =   0.0327869
        k(   44) = (   0.2833333   0.4907478   0.0000000), wk =   0.0327869
        k(   45) = (   0.2666667   0.4618803   0.0000000), wk =   0.0327869
        k(   46) = (   0.2500000   0.4330127   0.0000000), wk =   0.0327869
        k(   47) = (   0.2333333   0.4041452   0.0000000), wk =   0.0327869
        k(   48) = (   0.2166667   0.3752777   0.0000000), wk =   0.0327869
        k(   49) = (   0.2000000   0.3464102   0.0000000), wk =   0.0327869
        k(   50) = (   0.1833333   0.3175427   0.0000000), wk =   0.0327869
        k(   51) = (   0.1666667   0.2886752   0.0000000), wk =   0.0327869
        k(   52) = (   0.1500000   0.2598076   0.0000000), wk =   0.0327869
        k(   53) = (   0.1333333   0.2309401   0.0000000), wk =   0.0327869
        k(   54) = (   0.1166667   0.2020726   0.0000000), wk =   0.0327869
        k(   55) = (   0.1000000   0.1732051   0.0000000), wk =   0.0327869
        k(   56) = (   0.0833333   0.1443376   0.0000000), wk =   0.0327869
        k(   57) = (   0.0666667   0.1154701   0.0000000), wk =   0.0327869
        k(   58) = (   0.0500000   0.0866025   0.0000000), wk =   0.0327869
        k(   59) = (   0.0333333   0.0577350   0.0000000), wk =   0.0327869
        k(   60) = (   0.0166667   0.0288675   0.0000000), wk =   0.0327869
        k(   61) = (   0.0000000   0.0000000   0.0000000), wk =   0.0327869

     Dense  grid:   111423 G-vectors     FFT dimensions: (  36,  36, 240)

     Smooth grid:    39451 G-vectors     FFT dimensions: (  24,  24, 180)

     Estimated max dynamical RAM per process >      50.36 MB

     Estimated total dynamical RAM >     402.88 MB

     Check: negative core charge=   -0.000005

     The potential is recalculated from file :
     ./tmp/ti2co2.save/charge-density


     negative rho (up, down):  2.488E-03 0.000E+00
     Starting wfcs are   32 randomized atomic wfcs
     Checking if some PAW data can be deallocated... 

     Band Structure Calculation
     Davidson diagonalization with overlap
     c_bands:  1 eigenvalues not converged
     c_bands:  1 eigenvalues not converged
     c_bands:  1 eigenvalues not converged
     c_bands:  1 eigenvalues not converged
     c_bands:  2 eigenvalues not converged
     c_bands:  1 eigenvalues not converged
     c_bands:  1 eigenvalues not converged

     ethr =  2.50E-11,  avg # of iterations = 88.4

     total cpu time spent up to now is       57.3 secs

     End of band structure calculation

          k = 0.0000 0.0000 0.0000 (  4881 PWs)   bands (ev):

   -58.0464 -58.0210 -34.4006 -34.2103 -34.0939 -34.0939 -34.0783 -34.0783
   -19.1696 -19.0889 -11.3410  -6.1455  -5.3089  -5.3089  -4.9533  -4.9533
    -4.7432  -1.4092  -0.2924  -0.2923   0.3552   0.3553   1.1591   1.1591

          k =-0.0167 0.0289 0.0000 (  4895 PWs)   bands (ev):

   -58.0459 -58.0206 -34.3994 -34.2107 -34.0972 -34.0950 -34.0822 -34.0789
   -19.1644 -19.0848 -11.3369  -6.1361  -5.3243  -5.3025  -4.9722  -4.9491
    -4.7184  -1.3908  -0.4262  -0.3840   0.4379   0.4381   1.0879   1.1596

          k =-0.0333 0.0577 0.0000 (  4905 PWs)   bands (ev):

   -58.0444 -58.0193 -34.3960 -34.2121 -34.1063 -34.0993 -34.0927 -34.0810
   -19.1491 -19.0726 -11.3243  -6.1081  -5.3608  -5.2829  -5.0276  -4.9382
    -4.6526  -1.3426  -0.7127  -0.5835   0.5590   0.6052   1.0432   1.1690

          k =-0.0500 0.0866 0.0000 (  4905 PWs)   bands (ev):

   -58.0419 -58.0173 -34.3905 -34.2155 -34.1197 -34.1159 -34.1002 -34.0847
   -19.1245 -19.0530 -11.3027  -6.0636  -5.4044  -5.2569  -5.0996  -4.9210
    -4.5602  -1.2848  -1.0559  -0.8175   0.5961   0.7790   1.0881   1.2005

          k =-0.0667 0.1155 0.0000 (  4893 PWs)   bands (ev):

   -58.0384 -58.0144 -34.3828 -34.2230 -34.1420 -34.1347 -34.1066 -34.0900
   -19.0917 -19.0267 -11.2710  -6.0068  -5.4448  -5.2612  -5.1397  -4.9000
    -4.4543  -1.4222  -1.2512  -1.0503   0.5598   0.9124   1.1978   1.2838

          k =-0.0833 0.1443 0.0000 (  4893 PWs)   bands (ev):

   -58.0342 -58.0110 -34.3734 -34.2373 -34.1739 -34.1474 -34.1145 -34.0969
   -19.0524 -18.9951 -11.2282  -5.9461  -5.4775  -5.3251  -5.1023  -4.8768
    -4.3468  -1.7948  -1.3571  -1.1813   0.5064   0.9996   1.3128   1.4142

          k =-0.1000 0.1732 0.0000 (  4891 PWs)   bands (ev):

   -58.0293 -58.0070 -34.3623 -34.2599 -34.2099 -34.1555 -34.1241 -34.1054
   -19.0083 -18.9593 -11.1729  -5.8931  -5.5009  -5.3834  -5.0363  -4.8525
    -4.2469  -2.1585  -1.5836  -1.2373   0.4629   1.0718   1.4130   1.5550

          k =-0.1167 0.2021 0.0000 (  4884 PWs)   bands (ev):

   -58.0239 -58.0027 -34.3501 -34.2890 -34.2485 -34.1596 -34.1356 -34.1153
   -18.9615 -18.9208 -11.1042  -5.8625  -5.5147  -5.4021  -4.9599  -4.8297
    -4.1667  -2.4956  -1.8125  -1.3328   0.4378   1.1474   1.4910   1.6773

          k =-0.1333 0.2309 0.0000 (  4910 PWs)   bands (ev):

   -58.0181 -57.9982 -34.3374 -34.3217 -34.2875 -34.1617 -34.1490 -34.1262
   -18.9136 -18.8811 -11.0213  -5.8600  -5.5223  -5.3747  -4.8801  -4.8132
    -4.1222  -2.7846  -2.0301  -1.4711   0.4336   1.2215   1.5430   1.7705

          k =-0.1500 0.2598 0.0000 (  4906 PWs)   bands (ev):

   -58.0120 -57.9935 -34.3552 -34.3349 -34.3150 -34.1642 -34.1641 -34.1373
   -18.8664 -18.8413 -10.9242  -5.8694  -5.5250  -5.3148  -4.8069  -4.7998
    -4.1301  -2.9960  -2.2301  -1.6394   0.4523   1.2909   1.5728   1.8420

          k =-0.1667 0.2887 0.0000 (  4904 PWs)   bands (ev):

   -58.0059 -57.9889 -34.3875 -34.3674 -34.3051 -34.1812 -34.1703 -34.1459
   -18.8213 -18.8027 -10.8138  -5.8758  -5.5287  -5.2416  -4.8233  -4.7248
    -4.1936  -3.1131  -2.4100  -1.8263   0.4900   1.3477   1.5798   1.8985

          k =-0.1833 0.3175 0.0000 (  4912 PWs)   bands (ev):

   -58.0000 -57.9845 -34.4169 -34.4008 -34.2907 -34.1999 -34.1824 -34.1501
   -18.7794 -18.7662 -10.6919  -5.8702  -5.5378  -5.1662  -4.8748  -4.6614
    -4.2772  -3.1510  -2.5694  -2.0222   0.5385   1.3877   1.5698   1.9408

          k =-0.2000 0.3464 0.0000 (  4918 PWs)   bands (ev):

   -57.9942 -57.9805 -34.4422 -34.4299 -34.2763 -34.2202 -34.1987 -34.1521
   -18.7415 -18.7326 -10.5619  -5.8514  -5.5580  -5.0917  -4.9668  -4.6138
    -4.3354  -3.1444  -2.7080  -2.2188   0.5907   1.4120   1.5527   1.9622

          k =-0.2167 0.3753 0.0000 (  4916 PWs)   bands (ev):

   -57.9889 -57.9768 -34.4624 -34.4536 -34.2632 -34.2410 -34.2173 -34.1538
   -18.7082 -18.7024 -10.4284  -5.8216  -5.5940  -5.0752  -5.0170  -4.5879
    -4.3581  -3.1196  -2.8286  -2.4100   0.6403   1.4220   1.5364   1.9604

          k =-0.2333 0.4041 0.0000 (  4908 PWs)   bands (ev):

   -57.9840 -57.9737 -34.4767 -34.4711 -34.2686 -34.2453 -34.2372 -34.1560
   -18.6795 -18.6761 -10.2974  -5.7858  -5.6426  -5.1712  -4.9374  -4.5869
    -4.3578  -3.0918  -2.9365  -2.5892   0.6829   1.4138   1.5186   1.9536

          k =-0.2500 0.4330 0.0000 (  4896 PWs)   bands (ev):

   -57.9798 -57.9713 -34.4849 -34.4819 -34.2919 -34.2578 -34.2335 -34.1589
   -18.6557 -18.6539 -10.1757  -5.7497  -5.6913  -5.2439  -4.8520  -4.6108
    -4.3487  -3.0692  -3.0414  -2.7464   0.7207   1.3881   1.4958   1.9636

          k =-0.2667 0.4619 0.0000 (  4882 PWs)   bands (ev):

   -57.9761 -57.9694 -34.4871 -34.4860 -34.3167 -34.2786 -34.2217 -34.1626
   -18.6367 -18.6359 -10.0702  -5.7215  -5.7160  -5.2950  -4.7821  -4.6363
    -4.3388  -3.1523  -3.0558  -2.8701   0.7554   1.3513   1.4613   1.9907

          k =-0.2833 0.4907 0.0000 (  4892 PWs)   bands (ev):

   -57.9732 -57.9682 -34.4840 -34.4838 -34.3418 -34.2987 -34.2108 -34.1672
   -18.6224 -18.6221  -9.9870  -5.7202  -5.6863  -5.3287  -4.8163  -4.5801
    -4.3326  -3.2642  -3.0537  -2.9620   0.7893   1.3137   1.4102   2.0254

          k =-0.3000 0.5196 0.0000 (  4906 PWs)   bands (ev):

   -57.9709 -57.9677 -34.4768 -34.4765 -34.3658 -34.3166 -34.2011 -34.1727
   -18.6127 -18.6123  -9.9292  -5.6892  -5.6596  -5.3386  -4.9246  -4.4819
    -4.3335  -3.3538  -3.0622  -3.0314   0.8224   1.2885   1.3519   2.0555

          k =-0.3167 0.5485 0.0000 (  4898 PWs)   bands (ev):

   -57.9692 -57.9677 -34.4684 -34.4669 -34.3861 -34.3301 -34.1926 -34.1787
   -18.6070 -18.6067  -9.8969  -5.6507  -5.6348  -5.3042  -5.0616  -4.4005
    -4.3419  -3.3988  -3.0812  -3.0781   0.8510   1.2762   1.3025   2.0780

          k =-0.3333 0.5774 0.0000 (  4902 PWs)   bands (ev):

   -57.9683 -57.9681 -34.4629 -34.4628 -34.3953 -34.3354 -34.1854 -34.1852
   -18.6052 -18.6049  -9.8872  -5.6355  -5.6216  -5.2037  -5.2036  -4.3587
    -4.3586  -3.4051  -3.0958  -3.0957   0.8627   1.2765   1.2766   2.0843

          k =-0.3000 0.5774 0.0000 (  4896 PWs)   bands (ev):

   -57.9692 -57.9677 -34.4726 -34.4641 -34.3858 -34.3295 -34.1921 -34.1791
   -18.6070 -18.6065  -9.8951  -5.6523  -5.6464  -5.3057  -5.0490  -4.3823
    -4.3554  -3.4167  -3.1046  -3.0390   0.8497   1.2884   1.2908   2.0789

          k =-0.2667 0.5774 0.0000 (  4892 PWs)   bands (ev):

   -57.9705 -57.9676 -34.4906 -34.4724 -34.3639 -34.3130 -34.1990 -34.1741
   -18.6118 -18.6108  -9.9151  -5.7659  -5.6685  -5.3198  -4.8757  -4.4099
    -4.3755  -3.4595  -3.0899  -2.9098   0.8135   1.3001   1.3384   2.0661

          k =-0.2333 0.5774 0.0000 (  4902 PWs)   bands (ev):

   -57.9720 -57.9679 -34.5104 -34.4846 -34.3371 -34.2899 -34.2056 -34.1701
   -18.6192 -18.6173  -9.9421  -5.9271  -5.6941  -5.2714  -4.7207  -4.4352
    -4.4050  -3.5187  -3.0326  -2.7481   0.7541   1.3063   1.4068   2.0496

          k =-0.2000 0.5774 0.0000 (  4910 PWs)   bands (ev):

   -57.9736 -57.9684 -34.5294 -34.4982 -34.3089 -34.2643 -34.2115 -34.1671
   -18.6282 -18.6253  -9.9717  -6.0954  -5.7177  -5.1953  -4.6310  -4.4364
    -4.4347  -3.5813  -2.9155  -2.5834   0.6783   1.3033   1.4825   2.0359

          k =-0.1667 0.5774 0.0000 (  4910 PWs)   bands (ev):

   -57.9752 -57.9690 -34.5466 -34.5114 -34.2814 -34.2403 -34.2153 -34.1650
   -18.6380 -18.6341 -10.0007  -6.2529  -5.7375  -5.1056  -4.6280  -4.4657
    -4.3957  -3.6411  -2.7365  -2.4359   0.5824   1.2946   1.5633   2.0277

          k =-0.1333 0.5774 0.0000 (  4912 PWs)   bands (ev):

   -57.9767 -57.9697 -34.5613 -34.5231 -34.2563 -34.2290 -34.2075 -34.1638
   -18.6477 -18.6427 -10.0267  -6.3903  -5.7526  -5.0110  -4.6634  -4.4933
    -4.3587  -3.6931  -2.5109  -2.3171   0.4652   1.2853   1.6411   2.0201

          k =-0.1000 0.5774 0.0000 (  4938 PWs)   bands (ev):

   -57.9780 -57.9704 -34.5732 -34.5328 -34.2348 -34.2305 -34.1898 -34.1634
   -18.6563 -18.6505 -10.0483  -6.5028  -5.7630  -4.9195  -4.7062  -4.5191
    -4.3381  -3.7366  -2.2683  -2.2324   0.3304   1.2784   1.7117   2.0094

          k =-0.0667 0.5774 0.0000 (  4950 PWs)   bands (ev):

   -57.9789 -57.9709 -34.5818 -34.5399 -34.2329 -34.2181 -34.1749 -34.1637
   -18.6632 -18.6566 -10.0643  -6.5853  -5.7692  -4.8398  -4.7431  -4.5440
    -4.3288  -3.7679  -2.1791  -2.0436   0.1934   1.2786   1.7762   1.9966

          k =-0.0333 0.5774 0.0000 (  4934 PWs)   bands (ev):

   -57.9795 -57.9712 -34.5871 -34.5443 -34.2346 -34.2072 -34.1654 -34.1644
   -18.6676 -18.6605 -10.0741  -6.6355  -5.7718  -4.7812  -4.7677  -4.5640
    -4.3246  -3.7867  -2.1511  -1.8774   0.0853   1.2839   1.8351   1.9359

          k = 0.0000 0.5774 0.0000 (  4952 PWs)   bands (ev):

   -57.9797 -57.9713 -34.5889 -34.5458 -34.2352 -34.2033 -34.1648 -34.1622
   -18.6691 -18.6619 -10.0774  -6.6526  -5.7728  -4.7771  -4.7587  -4.5735
    -4.3238  -3.7936  -2.1430  -1.8158   0.0412   1.2857   1.8765   1.8964

          k = 0.0333 0.5774 0.0000 (  4934 PWs)   bands (ev):

   -57.9795 -57.9712 -34.5871 -34.5443 -34.2346 -34.2072 -34.1654 -34.1644
   -18.6676 -18.6605 -10.0741  -6.6355  -5.7718  -4.7812  -4.7677  -4.5640
    -4.3246  -3.7867  -2.1511  -1.8774   0.0853   1.2839   1.8351   1.9359

          k = 0.0667 0.5774 0.0000 (  4950 PWs)   bands (ev):

   -57.9789 -57.9709 -34.5818 -34.5399 -34.2329 -34.2181 -34.1749 -34.1637
   -18.6632 -18.6566 -10.0643  -6.5853  -5.7692  -4.8398  -4.7431  -4.5440
    -4.3288  -3.7679  -2.1791  -2.0436   0.1934   1.2786   1.7762   1.9976

          k = 0.1000 0.5774 0.0000 (  4938 PWs)   bands (ev):

   -57.9780 -57.9704 -34.5732 -34.5328 -34.2348 -34.2305 -34.1898 -34.1634
   -18.6563 -18.6505 -10.0483  -6.5028  -5.7630  -4.9195  -4.7062  -4.5191
    -4.3381  -3.7366  -2.2683  -2.2324   0.3304   1.2784   1.7117   2.0094

          k = 0.1333 0.5774 0.0000 (  4912 PWs)   bands (ev):

   -57.9767 -57.9697 -34.5613 -34.5231 -34.2563 -34.2290 -34.2075 -34.1638
   -18.6477 -18.6427 -10.0267  -6.3903  -5.7526  -5.0110  -4.6634  -4.4933
    -4.3587  -3.6931  -2.5109  -2.3171   0.4652   1.2853   1.6411   2.0201

          k = 0.1667 0.5774 0.0000 (  4910 PWs)   bands (ev):

   -57.9752 -57.9690 -34.5466 -34.5114 -34.2814 -34.2403 -34.2153 -34.1650
   -18.6380 -18.6341 -10.0007  -6.2529  -5.7375  -5.1056  -4.6280  -4.4657
    -4.3957  -3.6411  -2.7365  -2.4359   0.5824   1.2946   1.5633   2.0277

          k = 0.2000 0.5774 0.0000 (  4910 PWs)   bands (ev):

   -57.9736 -57.9684 -34.5294 -34.4982 -34.3089 -34.2643 -34.2115 -34.1671
   -18.6282 -18.6253  -9.9717  -6.0954  -5.7177  -5.1953  -4.6310  -4.4364
    -4.4347  -3.5813  -2.9155  -2.5834   0.6783   1.3033   1.4825   2.0359

          k = 0.2333 0.5774 0.0000 (  4902 PWs)   bands (ev):

   -57.9720 -57.9679 -34.5104 -34.4846 -34.3371 -34.2899 -34.2056 -34.1701
   -18.6192 -18.6173  -9.9421  -5.9271  -5.6941  -5.2714  -4.7207  -4.4352
    -4.4050  -3.5187  -3.0326  -2.7481   0.7541   1.3063   1.4068   2.0496

          k = 0.2667 0.5774 0.0000 (  4892 PWs)   bands (ev):

   -57.9705 -57.9676 -34.4906 -34.4724 -34.3639 -34.3130 -34.1990 -34.1741
   -18.6118 -18.6108  -9.9151  -5.7659  -5.6685  -5.3198  -4.8757  -4.4099
    -4.3755  -3.4595  -3.0899  -2.9098   0.8135   1.3001   1.3384   2.0661

          k = 0.3000 0.5774 0.0000 (  4896 PWs)   bands (ev):

   -57.9692 -57.9677 -34.4726 -34.4641 -34.3858 -34.3295 -34.1921 -34.1791
   -18.6070 -18.6065  -9.8951  -5.6523  -5.6464  -5.3057  -5.0490  -4.3823
    -4.3554  -3.4167  -3.1046  -3.0390   0.8497   1.2884   1.2908   2.0789

          k = 0.3333 0.5774 0.0000 (  4902 PWs)   bands (ev):

   -57.9683 -57.9681 -34.4629 -34.4628 -34.3953 -34.3354 -34.1854 -34.1852
   -18.6052 -18.6049  -9.8872  -5.6355  -5.6216  -5.2037  -5.2036  -4.3587
    -4.3586  -3.4051  -3.0958  -3.0957   0.8627   1.2765   1.2766   2.0843

          k = 0.3167 0.5485 0.0000 (  4898 PWs)   bands (ev):

   -57.9692 -57.9677 -34.4684 -34.4669 -34.3861 -34.3301 -34.1926 -34.1787
   -18.6070 -18.6067  -9.8969  -5.6507  -5.6348  -5.3042  -5.0616  -4.4005
    -4.3419  -3.3988  -3.0812  -3.0781   0.8510   1.2762   1.3025   2.0780

          k = 0.3000 0.5196 0.0000 (  4906 PWs)   bands (ev):

   -57.9709 -57.9677 -34.4768 -34.4765 -34.3658 -34.3166 -34.2011 -34.1727
   -18.6127 -18.6123  -9.9292  -5.6892  -5.6596  -5.3386  -4.9246  -4.4819
    -4.3335  -3.3538  -3.0622  -3.0314   0.8224   1.2885   1.3519   2.0555

          k = 0.2833 0.4907 0.0000 (  4892 PWs)   bands (ev):

   -57.9732 -57.9682 -34.4840 -34.4838 -34.3418 -34.2987 -34.2108 -34.1672
   -18.6224 -18.6221  -9.9870  -5.7202  -5.6863  -5.3287  -4.8163  -4.5801
    -4.3326  -3.2642  -3.0537  -2.9620   0.7893   1.3137   1.4102   2.0254

          k = 0.2667 0.4619 0.0000 (  4882 PWs)   bands (ev):

   -57.9761 -57.9694 -34.4871 -34.4860 -34.3167 -34.2786 -34.2217 -34.1626
   -18.6367 -18.6359 -10.0702  -5.7215  -5.7160  -5.2950  -4.7821  -4.6363
    -4.3388  -3.1523  -3.0558  -2.8701   0.7554   1.3513   1.4613   1.9907

          k = 0.2500 0.4330 0.0000 (  4896 PWs)   bands (ev):

   -57.9798 -57.9713 -34.4849 -34.4819 -34.2919 -34.2578 -34.2335 -34.1589
   -18.6557 -18.6539 -10.1757  -5.7497  -5.6913  -5.2439  -4.8520  -4.6108
    -4.3487  -3.0692  -3.0414  -2.7464   0.7207   1.3881   1.4958   1.9636

          k = 0.2333 0.4041 0.0000 (  4908 PWs)   bands (ev):

   -57.9840 -57.9737 -34.4767 -34.4711 -34.2686 -34.2453 -34.2372 -34.1560
   -18.6795 -18.6761 -10.2974  -5.7858  -5.6426  -5.1712  -4.9374  -4.5869
    -4.3578  -3.0918  -2.9365  -2.5892   0.6829   1.4138   1.5186   1.9536

          k = 0.2167 0.3753 0.0000 (  4916 PWs)   bands (ev):

   -57.9889 -57.9768 -34.4624 -34.4536 -34.2632 -34.2410 -34.2173 -34.1538
   -18.7082 -18.7024 -10.4284  -5.8216  -5.5940  -5.0752  -5.0170  -4.5879
    -4.3581  -3.1196  -2.8286  -2.4100   0.6403   1.4220   1.5364   1.9604

          k = 0.2000 0.3464 0.0000 (  4918 PWs)   bands (ev):

   -57.9942 -57.9805 -34.4422 -34.4299 -34.2763 -34.2202 -34.1987 -34.1521
   -18.7415 -18.7326 -10.5619  -5.8514  -5.5580  -5.0917  -4.9668  -4.6138
    -4.3354  -3.1444  -2.7080  -2.2188   0.5907   1.4120   1.5527   1.9622

          k = 0.1833 0.3175 0.0000 (  4912 PWs)   bands (ev):

   -58.0000 -57.9845 -34.4169 -34.4008 -34.2907 -34.1999 -34.1824 -34.1501
   -18.7794 -18.7662 -10.6919  -5.8702  -5.5378  -5.1662  -4.8748  -4.6614
    -4.2772  -3.1510  -2.5694  -2.0222   0.5385   1.3877   1.5698   1.9408

          k = 0.1667 0.2887 0.0000 (  4904 PWs)   bands (ev):

   -58.0059 -57.9889 -34.3875 -34.3674 -34.3051 -34.1812 -34.1703 -34.1459
   -18.8213 -18.8027 -10.8138  -5.8758  -5.5287  -5.2416  -4.8233  -4.7248
    -4.1936  -3.1131  -2.4100  -1.8263   0.4900   1.3477   1.5798   1.8985

          k = 0.1500 0.2598 0.0000 (  4906 PWs)   bands (ev):

   -58.0120 -57.9935 -34.3552 -34.3349 -34.3150 -34.1642 -34.1641 -34.1373
   -18.8664 -18.8413 -10.9242  -5.8694  -5.5250  -5.3148  -4.8069  -4.7998
    -4.1301  -2.9960  -2.2301  -1.6394   0.4523   1.2909   1.5728   1.8420

          k = 0.1333 0.2309 0.0000 (  4910 PWs)   bands (ev):

   -58.0181 -57.9982 -34.3374 -34.3217 -34.2875 -34.1617 -34.1490 -34.1262
   -18.9136 -18.8811 -11.0213  -5.8600  -5.5223  -5.3747  -4.8801  -4.8132
    -4.1222  -2.7846  -2.0301  -1.4711   0.4336   1.2215   1.5430   1.7705

          k = 0.1167 0.2021 0.0000 (  4884 PWs)   bands (ev):

   -58.0239 -58.0027 -34.3501 -34.2890 -34.2485 -34.1596 -34.1356 -34.1153
   -18.9615 -18.9208 -11.1042  -5.8625  -5.5147  -5.4021  -4.9599  -4.8297
    -4.1667  -2.4956  -1.8125  -1.3328   0.4378   1.1474   1.4910   1.6773

          k = 0.1000 0.1732 0.0000 (  4891 PWs)   bands (ev):

   -58.0293 -58.0070 -34.3623 -34.2599 -34.2099 -34.1555 -34.1241 -34.1054
   -19.0083 -18.9593 -11.1729  -5.8931  -5.5009  -5.3834  -5.0363  -4.8525
    -4.2469  -2.1585  -1.5836  -1.2373   0.4629   1.0718   1.4130   1.5550

          k = 0.0833 0.1443 0.0000 (  4893 PWs)   bands (ev):

   -58.0342 -58.0110 -34.3734 -34.2373 -34.1739 -34.1474 -34.1145 -34.0969
   -19.0524 -18.9951 -11.2282  -5.9461  -5.4775  -5.3251  -5.1023  -4.8768
    -4.3468  -1.7948  -1.3571  -1.1813   0.5064   0.9996   1.3128   1.4142

          k = 0.0667 0.1155 0.0000 (  4893 PWs)   bands (ev):

   -58.0384 -58.0144 -34.3828 -34.2230 -34.1420 -34.1347 -34.1066 -34.0900
   -19.0917 -19.0267 -11.2710  -6.0068  -5.4448  -5.2612  -5.1397  -4.9000
    -4.4543  -1.4222  -1.2512  -1.0503   0.5598   0.9124   1.1978   1.2838

          k = 0.0500 0.0866 0.0000 (  4905 PWs)   bands (ev):

   -58.0419 -58.0173 -34.3905 -34.2155 -34.1197 -34.1159 -34.1002 -34.0847
   -19.1245 -19.0530 -11.3027  -6.0636  -5.4044  -5.2569  -5.0996  -4.9210
    -4.5602  -1.2848  -1.0559  -0.8175   0.5961   0.7790   1.0881   1.2005

          k = 0.0333 0.0577 0.0000 (  4905 PWs)   bands (ev):

   -58.0444 -58.0193 -34.3960 -34.2121 -34.1063 -34.0993 -34.0927 -34.0810
   -19.1491 -19.0726 -11.3243  -6.1081  -5.3608  -5.2829  -5.0276  -4.9382
    -4.6526  -1.3426  -0.7127  -0.5835   0.5590   0.6052   1.0432   1.1690

          k = 0.0167 0.0289 0.0000 (  4895 PWs)   bands (ev):

   -58.0459 -58.0206 -34.3994 -34.2107 -34.0972 -34.0950 -34.0822 -34.0789
   -19.1644 -19.0848 -11.3369  -6.1361  -5.3243  -5.3025  -4.9722  -4.9491
    -4.7184  -1.3908  -0.4262  -0.3840   0.4379   0.4381   1.0879   1.1596

          k = 0.0000 0.0000 0.0000 (  4881 PWs)   bands (ev):

   -58.0464 -58.0210 -34.4006 -34.2103 -34.0939 -34.0939 -34.0783 -34.0783
   -19.1696 -19.0889 -11.3410  -6.1455  -5.3089  -5.3089  -4.9533  -4.9533
    -4.7432  -1.4092  -0.2924  -0.2923   0.3552   0.3553   1.1591   1.1591

     Writing all to output data dir ./tmp/ti2co2.save/ :
     XML data file, pseudopotentials, collected wavefunctions

     init_run     :      0.80s CPU      0.82s WALL (       1 calls)
     electrons    :     53.51s CPU     56.24s WALL (       1 calls)

     Called by init_run:
     wfcinit      :      0.00s CPU      0.00s WALL (       1 calls)
     potinit      :      0.32s CPU      0.32s WALL (       1 calls)
     hinit0       :      0.40s CPU      0.38s WALL (       1 calls)

     Called by electrons:
     c_bands      :     53.51s CPU     56.24s WALL (       1 calls)
     v_of_rho     :      0.02s CPU      0.02s WALL (       1 calls)
     newd         :      0.05s CPU      0.10s WALL (       1 calls)
     PAW_pot      :      0.07s CPU      0.08s WALL (       1 calls)

     Called by c_bands:
     init_us_2    :      0.02s CPU      0.01s WALL (      61 calls)
     cegterg      :     52.21s CPU     54.99s WALL (     299 calls)

     Called by *egterg:
     cdiaghg      :      3.55s CPU      3.35s WALL (    5451 calls)
     h_psi        :     23.80s CPU     25.82s WALL (    5750 calls)
     s_psi        :      3.43s CPU      3.26s WALL (    5750 calls)
     g_psi        :      0.08s CPU      0.08s WALL (    5390 calls)

     Called by h_psi:
     h_psi:calbec :      4.69s CPU      4.62s WALL (    5750 calls)
     vloc_psi     :     15.66s CPU     17.85s WALL (    5750 calls)
                                        0.00s GPU  (    5750 calls)
     add_vuspsi   :      3.37s CPU      3.27s WALL (    5750 calls)

     General routines
     calbec       :      4.68s CPU      4.61s WALL (    5750 calls)
     fft          :      0.33s CPU      0.31s WALL (      13 calls)
     ffts         :      0.23s CPU      0.21s WALL (       1 calls)
     fftw         :     14.48s CPU     16.71s WALL (  125060 calls)
     interpolate  :      0.23s CPU      0.21s WALL (       1 calls)
     davcio       :      0.01s CPU      0.02s WALL (     122 calls)

     Parallel routines

     PWSCF        :     54.55s CPU     57.39s WALL


   This run was terminated on:  15: 6:46  22Sep2026            

=------------------------------------------------------------------------------=
   JOB DONE.
=------------------------------------------------------------------------------=
