
     Program PWSCF v.7.5 starts on 22Sep2026 at 16:33:40 

     This program is part of the open-source Quantum ESPRESSO suite
     for quantum simulation of materials; please cite
         "P. Giannozzi et al., J. Phys.:Condens. Matter 21 395502 (2009);
         "P. Giannozzi et al., J. Phys.:Condens. Matter 29 465901 (2017);
         "P. Giannozzi et al., J. Chem. Phys. 152 154105 (2020);
          URL http://www.quantum-espresso.org", 
     in publications or presentations arising from this work. More details at
     http://www.quantum-espresso.org/quote

     Parallel version (MPI), running on     4 processors

     MPI processes distributed on     1 nodes
     4867 MiB available memory on the printing compute node when the environment starts

     Waiting for input...
     Reading input from standard input
Warning: card &IONS ignored

     Current dimensions of program PWSCF are:
     Max number of different atomic species (ntypx) = 10
     Max number of k-points (npk) =  40000
     Max angular momentum in pseudopotentials (lmaxx) =  4
     file Ti.pbe-spn-kjpaw_psl.1.0.0.UPF: wavefunction(s)  3S 3P 3D renormalized
     file C.pbe-n-kjpaw_psl.1.0.0.UPF: wavefunction(s)  2S 2P renormalized
     file O.pbe-n-kjpaw_psl.1.0.0.UPF: wavefunction(s)  2S 2P renormalized

     Atomic positions and unit cell read from directory:
     ./tmp/ti2co2.save/

     Message from routine setup:
     using ibrav=0 with symmetry is DISCOURAGED, use correct ibrav instead

     R & G space division:  proc/nbgrp/npool/nimage =       4
     Subspace diagonalization in iterative solution of the eigenvalue problem:
     a serial algorithm will be used


     Parallelization info
     --------------------
     sticks:   dense  smooth     PW     G-vecs:    dense   smooth      PW
     Min         183      90     27                27851     9852    1665
     Max         184      91     28                27861     9877    1692
     Sum         733     361    109               111423    39451    6691

     Using Slab Decomposition



     bravais-lattice index     =            0
     lattice parameter (alat)  =       5.7299  a.u.
     unit-cell volume          =    1151.2252 (a.u.)^3
     number of atoms/cell      =            5
     number of atomic types    =            3
     number of electrons       =        40.00
     number of Kohn-Sham states=           24
     kinetic-energy cutoff     =      40.0000  Ry
     charge density cutoff     =     320.0000  Ry
     Exchange-correlation= SLA  PW   PBX  PBC
                           (   1   4   3   4   0   0   0)

     celldm(1)=   5.729914  celldm(2)=   0.000000  celldm(3)=   0.000000
     celldm(4)=   0.000000  celldm(5)=   0.000000  celldm(6)=   0.000000

     crystal axes: (cart. coord. in units of alat)
               a(1) = (   1.000000   0.000000   0.000000 )  
               a(2) = (  -0.500000   0.866025   0.000000 )  
               a(3) = (   0.000000   0.000000   7.066191 )  

     reciprocal axes: (cart. coord. in units 2 pi/alat)
               b(1) = (  1.000000  0.577350 -0.000000 )  
               b(2) = (  0.000000  1.154701  0.000000 )  
               b(3) = (  0.000000 -0.000000  0.141519 )  


     PseudoPot. # 1 for Ti read from file:
     ../pseudopotential/Ti.pbe-spn-kjpaw_psl.1.0.0.UPF
     MD5 check sum: 01f69b0d8ba4438b2e03ac6ea4af1c0b
     Pseudo is Projector augmented-wave + core cor, Zval = 12.0
     Generated using &quot;atomic&quot; code by A. Dal Corso  v.6.2.2
     Shape of augmentation charge: PSQ
     Using radial grid of 1177 points,  6 beta functions with: 
                l(1) =   0
                l(2) =   0
                l(3) =   1
                l(4) =   1
                l(5) =   2
                l(6) =   2
     Q(r) pseudized with 0 coefficients 


     PseudoPot. # 2 for C  read from file:
     ../pseudopotential/C.pbe-n-kjpaw_psl.1.0.0.UPF
     MD5 check sum: 5f16ad9a65e90284d1d834d4ab3b0f7d
     Pseudo is Projector augmented-wave + core cor, Zval =  4.0
     Generated using &quot;atomic&quot; code by A. Dal Corso  v.6.3
     Shape of augmentation charge: PSQ
     Using radial grid of 1073 points,  4 beta functions with: 
                l(1) =   0
                l(2) =   0
                l(3) =   1
                l(4) =   1
     Q(r) pseudized with 0 coefficients 


     PseudoPot. # 3 for O  read from file:
     ../pseudopotential/O.pbe-n-kjpaw_psl.1.0.0.UPF
     MD5 check sum: e99d9cef9b487d1ca56f5b95ecd0fd7a
     Pseudo is Projector augmented-wave + core cor, Zval =  6.0
     Generated using &quot;atomic&quot; code by A. Dal Corso  v.6.3
     Shape of augmentation charge: PSQ
     Using radial grid of 1095 points,  4 beta functions with: 
                l(1) =   0
                l(2) =   0
                l(3) =   1
                l(4) =   1
     Q(r) pseudized with 0 coefficients 


     atomic species   valence    mass     pseudopotential
     Ti               12.00    47.86700     Ti( 1.00)
     C                 4.00    12.01100     C ( 1.00)
     O                 6.00    15.99900     O ( 1.00)

      6 Sym. Ops. (no inversion) found



   Cartesian axes

     site n.     atom                  positions (alat units)
         1        Ti     tau(   1) = (   0.0000000   0.5773480   0.7935739  )
         2        Ti     tau(   2) = (   0.5000000   0.2886740   1.6554160  )
         3        C      tau(   3) = (   0.0000000  -0.0000000   1.2245154  )
         4        O      tau(   4) = (   0.0000000   0.5773480   1.9548814  )
         5        O      tau(   5) = (   0.5000000   0.2886740   0.4940912  )

     number of k points=    10 (tetrahedron method)
                       cart. coord. in units 2pi/alat
        k(    1) = (   0.0000000   0.0000000   0.0000000), wk =   0.0312500
        k(    2) = (   0.0000000   0.1443376   0.0000000), wk =   0.1875000
        k(    3) = (   0.0000000   0.2886752   0.0000000), wk =   0.1875000
        k(    4) = (   0.0000000   0.4330127   0.0000000), wk =   0.1875000
        k(    5) = (   0.0000000  -0.5773503   0.0000000), wk =   0.0937500
        k(    6) = (   0.1250000   0.2165064   0.0000000), wk =   0.1875000
        k(    7) = (   0.1250000   0.3608440   0.0000000), wk =   0.3750000
        k(    8) = (   0.1250000   0.5051815   0.0000000), wk =   0.3750000
        k(    9) = (   0.2500000   0.4330127   0.0000000), wk =   0.1875000
        k(   10) = (   0.2500000   0.5773503   0.0000000), wk =   0.1875000

     Dense  grid:   111423 G-vectors     FFT dimensions: (  36,  36, 240)

     Smooth grid:    39451 G-vectors     FFT dimensions: (  24,  24, 180)

     Estimated max dynamical RAM per process >      96.45 MB

     Estimated total dynamical RAM >     385.79 MB

     Check: negative core charge=   -0.000005

     The potential is recalculated from file :
     ./tmp/ti2co2.save/charge-density


     negative rho (up, down):  2.488E-03 0.000E+00
     Starting wfcs are   32 randomized atomic wfcs
     Checking if some PAW data can be deallocated... 

     Band Structure Calculation
     Davidson diagonalization with overlap
     c_bands:  1 eigenvalues not converged
     c_bands:  1 eigenvalues not converged

     ethr =  2.50E-11,  avg # of iterations = 94.8

     total cpu time spent up to now is       79.2 secs

     End of band structure calculation

          k = 0.0000 0.0000 0.0000 (  4881 PWs)   bands (ev):

   -58.0464 -58.0210 -34.4006 -34.2103 -34.0939 -34.0939 -34.0783 -34.0783
   -19.1696 -19.0889 -11.3410  -6.1455  -5.3089  -5.3089  -4.9533  -4.9533
    -4.7432  -1.4092  -0.2924  -0.2923   0.3552   0.3553   1.1591   1.1591

          k = 0.0000 0.1443 0.0000 (  4918 PWs)   bands (ev):

   -58.0372 -58.0134 -34.3799 -34.2274 -34.1521 -34.1390 -34.1111 -34.0897
   -19.0794 -19.0169 -11.2582  -5.9909  -5.4563  -5.2335  -5.1889  -4.8796
    -4.4192  -1.6143  -1.2238  -1.0589   0.4794   0.9889   1.1963   1.3525

          k = 0.0000 0.2887 0.0000 (  4914 PWs)   bands (ev):

   -58.0142 -57.9952 -34.3617 -34.3312 -34.3143 -34.1617 -34.1502 -34.1191
   -18.8840 -18.8569 -10.9585  -5.9842  -5.4766  -5.2000  -4.9343  -4.7347
    -4.2016  -3.1057  -1.7033  -1.6591   0.3037   1.1657   1.4869   2.0607

          k = 0.0000 0.4330 0.0000 (  4948 PWs)   bands (ev):

   -57.9904 -57.9778 -34.5222 -34.4808 -34.2659 -34.1879 -34.1607 -34.1495
   -18.7214 -18.7182 -10.4312  -6.2452  -5.6448  -4.9608  -4.7885  -4.6222
    -4.4519  -3.4877  -2.1587  -1.8612   0.1228   1.3934   1.5420   2.0723

          k = 0.0000-0.5774 0.0000 (  4952 PWs)   bands (ev):

   -57.9797 -57.9713 -34.5889 -34.5458 -34.2352 -34.2033 -34.1648 -34.1622
   -18.6691 -18.6619 -10.0774  -6.6526  -5.7728  -4.7771  -4.7587  -4.5735
    -4.3238  -3.7936  -2.1430  -1.8158   0.0412   1.2857   1.8765   1.8964

          k = 0.1250 0.2165 0.0000 (  4894 PWs)   bands (ev):

   -58.0210 -58.0005 -34.3437 -34.3051 -34.2681 -34.1607 -34.1420 -34.1206
   -18.9375 -18.9010 -11.0645  -5.8584  -5.5189  -5.3938  -4.9201  -4.8205
    -4.1385  -2.6478  -1.9230  -1.3971   0.4329   1.1848   1.5204   1.7275

          k = 0.1250 0.3608 0.0000 (  4920 PWs)   bands (ev):

   -57.9975 -57.9828 -34.4452 -34.4172 -34.2847 -34.2015 -34.1742 -34.1512
   -18.7636 -18.7531 -10.6331  -5.9535  -5.5373  -5.0558  -4.8847  -4.6834
    -4.3570  -3.2312  -2.4142  -2.0773   0.4764   1.3926   1.5051   2.0281

          k = 0.1250 0.5052 0.0000 (  4925 PWs)   bands (ev):

   -57.9798 -57.9713 -34.5499 -34.5126 -34.2450 -34.2358 -34.2006 -34.1607
   -18.6620 -18.6583 -10.1284  -6.2927  -5.7460  -5.0151  -4.7089  -4.5701
    -4.3442  -3.5857  -2.4619  -2.3036   0.4402   1.3141   1.6430   1.9598

          k = 0.2500 0.4330 0.0000 (  4896 PWs)   bands (ev):

   -57.9798 -57.9713 -34.4849 -34.4819 -34.2919 -34.2578 -34.2335 -34.1589
   -18.6557 -18.6539 -10.1757  -5.7497  -5.6913  -5.2439  -4.8520  -4.6108
    -4.3487  -3.0692  -3.0414  -2.7464   0.7207   1.3881   1.4958   1.9636

          k = 0.2500 0.5774 0.0000 (  4894 PWs)   bands (ev):

   -57.9712 -57.9677 -34.5005 -34.4782 -34.3508 -34.3020 -34.2023 -34.1720
   -18.6152 -18.6138  -9.9280  -5.8438  -5.6813  -5.3003  -4.7932  -4.4238
    -4.3895  -3.4878  -3.0678  -2.8309   0.7865   1.3044   1.3711   2.0577

     the Fermi energy is    -0.1968 ev
     (compare with:    -0.1880 eV, computed in scf)

     Writing all to output data dir ./tmp/ti2co2.save/ :
     XML data file, pseudopotentials, collected wavefunctions

     init_run     :      1.44s CPU      1.94s WALL (       1 calls)
     electrons    :     56.23s CPU     76.67s WALL (       1 calls)

     Called by init_run:
     wfcinit      :      0.00s CPU      0.00s WALL (       1 calls)
     potinit      :      0.62s CPU      0.82s WALL (       1 calls)
     hinit0       :      0.62s CPU      0.79s WALL (       1 calls)

     Called by electrons:
     c_bands      :     56.21s CPU     76.63s WALL (       1 calls)
     v_of_rho     :      0.10s CPU      0.18s WALL (       1 calls)
     newd         :      0.11s CPU      0.22s WALL (       1 calls)
     PAW_pot      :      0.23s CPU      0.29s WALL (       1 calls)

     Called by c_bands:
     init_us_2    :      0.01s CPU      0.01s WALL (      10 calls)
     cegterg      :     54.05s CPU     73.62s WALL (      52 calls)

     Called by *egterg:
     cdiaghg      :      2.41s CPU      3.13s WALL (     958 calls)
     h_psi        :     36.37s CPU     51.47s WALL (    1010 calls)
     s_psi        :      1.20s CPU      1.58s WALL (    1010 calls)
     g_psi        :      0.03s CPU      0.05s WALL (     948 calls)

     Called by h_psi:
     h_psi:calbec :      3.93s CPU      5.09s WALL (    1010 calls)
     vloc_psi     :     31.17s CPU     44.86s WALL (    1010 calls)
                                        0.00s GPU  (    1010 calls)
     add_vuspsi   :      1.24s CPU      1.49s WALL (    1010 calls)

     General routines
     calbec       :      3.93s CPU      5.09s WALL (    1010 calls)
     fft          :      0.36s CPU      0.49s WALL (      13 calls)
     ffts         :      0.28s CPU      0.32s WALL (       1 calls)
     fftw         :     30.69s CPU     44.30s WALL (   20992 calls)
     interpolate  :      0.29s CPU      0.32s WALL (       1 calls)
     davcio       :      0.00s CPU      0.03s WALL (      20 calls)

     Parallel routines

     PWSCF        :     58.08s CPU   1m19.33s WALL


   This run was terminated on:  16:34:59  22Sep2026            

=------------------------------------------------------------------------------=
   JOB DONE.
=------------------------------------------------------------------------------=
