
     Program PWSCF v.7.5 starts on 24Sep2026 at 17:46:26 

     This program is part of the open-source Quantum ESPRESSO suite
     for quantum simulation of materials; please cite
         "P. Giannozzi et al., J. Phys.:Condens. Matter 21 395502 (2009);
         "P. Giannozzi et al., J. Phys.:Condens. Matter 29 465901 (2017);
         "P. Giannozzi et al., J. Chem. Phys. 152 154105 (2020);
          URL http://www.quantum-espresso.org", 
     in publications or presentations arising from this work. More details at
     http://www.quantum-espresso.org/quote

     Parallel version (MPI), running on     8 processors

     MPI processes distributed on     1 nodes
     2087 MiB available memory on the printing compute node when the environment starts

     Waiting for input...
     Reading input from standard input
Warning: card &IONS ignored

     Current dimensions of program PWSCF are:
     Max number of different atomic species (ntypx) = 10
     Max number of k-points (npk) =  40000
     Max angular momentum in pseudopotentials (lmaxx) =  4

     Atomic positions and unit cell read from directory:
     ./tmp/ti2co2_eps.save/


     R & G space division:  proc/nbgrp/npool/nimage =       8
     Subspace diagonalization in iterative solution of the eigenvalue problem:
     one sub-group per band group will be used
     custom distributed-memory algorithm (size of sub-group:  2*  2 procs)


     Parallelization info
     --------------------
     sticks:   dense  smooth     PW     G-vecs:    dense   smooth      PW
     Min         133      68     21                25497     9026    1645
     Max         134      69     22                25542     9047    1669
     Sum        1069     547    169               204187    72277   13241

     Using Slab Decomposition



     bravais-lattice index     =            0
     lattice parameter (alat)  =       5.7299  a.u.
     unit-cell volume          =    1151.2252 (a.u.)^3
     number of atoms/cell      =            5
     number of atomic types    =            3
     number of electrons       =        40.00
     number of Kohn-Sham states=          200
     kinetic-energy cutoff     =      60.0000  Ry
     charge density cutoff     =     480.0000  Ry
     Exchange-correlation= PBE
                           (   1   4   3   4   0   0   0)

     celldm(1)=   5.729914  celldm(2)=   0.000000  celldm(3)=   0.000000
     celldm(4)=   0.000000  celldm(5)=   0.000000  celldm(6)=   0.000000

     crystal axes: (cart. coord. in units of alat)
               a(1) = (   1.000000   0.000000   0.000000 )  
               a(2) = (  -0.500000   0.866025   0.000000 )  
               a(3) = (   0.000000   0.000000   7.066191 )  

     reciprocal axes: (cart. coord. in units 2 pi/alat)
               b(1) = (  1.000000  0.577350 -0.000000 )  
               b(2) = (  0.000000  1.154701  0.000000 )  
               b(3) = (  0.000000 -0.000000  0.141519 )  


     PseudoPot. # 1 for Ti read from file:
     ../pseudopotential/Ti.upf
     MD5 check sum: 0b3868d933a8ea9356727c02a1b807de
     Pseudo is Norm-conserving + core correction, Zval = 12.0
     Generated using ONCVPSP code by D. R. Hamann
     Using radial grid of 1586 points,  6 beta functions with: 
                l(1) =   0
                l(2) =   0
                l(3) =   1
                l(4) =   1
                l(5) =   2
                l(6) =   2

     PseudoPot. # 2 for C  read from file:
     ../pseudopotential/C.upf
     MD5 check sum: 34a24e64c0a39f27c6c36b90a16ac686
     Pseudo is Norm-conserving + core correction, Zval =  4.0
     Generated using ONCVPSP code by D. R. Hamann
     Using radial grid of 1248 points,  4 beta functions with: 
                l(1) =   0
                l(2) =   0
                l(3) =   1
                l(4) =   1

     PseudoPot. # 3 for O  read from file:
     ../pseudopotential/O.upf
     MD5 check sum: 3e3f909f7470e8921608ab6b1f57bbae
     Pseudo is Norm-conserving + core correction, Zval =  6.0
     Generated using ONCVPSP code by D. R. Hamann
     Using radial grid of  936 points,  5 beta functions with: 
                l(1) =   0
                l(2) =   0
                l(3) =   1
                l(4) =   1
                l(5) =   2

     atomic species   valence    mass     pseudopotential
     Ti               12.00    47.86700     Ti( 1.00)
     C                 4.00    12.01100     C ( 1.00)
     O                 6.00    15.99900     O ( 1.00)

     No symmetry found



   Cartesian axes

     site n.     atom                  positions (alat units)
         1        Ti     tau(   1) = (   0.0000000   0.5773480   0.7935739  )
         2        Ti     tau(   2) = (   0.5000000   0.2886740   1.6554160  )
         3        C      tau(   3) = (   0.0000000  -0.0000000   1.2245154  )
         4        O      tau(   4) = (   0.0000000   0.5773480   1.9548814  )
         5        O      tau(   5) = (   0.5000000   0.2886740   0.4940912  )

     number of k points=   324  Marzari-Vanderbilt smearing, width (Ry)=  0.0200

     Number of k-points >= 100: set verbosity='high' to print them.

     Dense  grid:   204187 G-vectors     FFT dimensions: (  40,  40, 288)

     Smooth grid:    72277 G-vectors     FFT dimensions: (  30,  30, 200)

     Estimated max dynamical RAM per process >      34.69 MB

     Estimated total dynamical RAM >     277.55 MB

     The potential is recalculated from file :
     ./tmp/ti2co2_eps.save/charge-density

     Starting wfcs are   32 randomized atomic wfcs +  168 random wfcs

     Band Structure Calculation
     Davidson diagonalization with overlap

     ethr =  2.50E-11,  avg # of iterations = 37.5

     total cpu time spent up to now is     7503.0 secs

     End of band structure calculation

     Number of k-points >= 100: set verbosity='high' to print the bands.

     the Fermi energy is    -0.7391 ev
     (compare with:     0.0018 eV, computed in scf)

     Writing all to output data dir ./tmp/ti2co2_eps.save/ :
     XML data file, pseudopotentials, collected wavefunctions

     init_run     :      0.63s CPU      0.66s WALL (       1 calls)
     electrons    :   7435.39s CPU   7501.78s WALL (       1 calls)

     Called by init_run:
     wfcinit      :      0.00s CPU      0.00s WALL (       1 calls)
     potinit      :      0.21s CPU      0.22s WALL (       1 calls)
     hinit0       :      0.36s CPU      0.38s WALL (       1 calls)

     Called by electrons:
     c_bands      :   7435.36s CPU   7501.75s WALL (       1 calls)
     v_of_rho     :      0.03s CPU      0.04s WALL (       1 calls)

     Called by c_bands:
     init_us_2    :      0.18s CPU      0.25s WALL (     324 calls)
     cegterg      :   7296.51s CPU   7358.57s WALL (     686 calls)

     Called by *egterg:
     cdiaghg      :   1669.64s CPU   1679.99s WALL (   12489 calls)
     h_psi        :    871.87s CPU    910.39s WALL (   13175 calls)
     g_psi        :      4.40s CPU      4.42s WALL (   12165 calls)

     Called by h_psi:
     h_psi:calbec :    189.56s CPU    191.42s WALL (   13175 calls)
     vloc_psi     :    532.20s CPU    566.56s WALL (   13175 calls)
                                        0.00s GPU  (   13175 calls)
     add_vuspsi   :    142.44s CPU    142.61s WALL (   13175 calls)

     General routines
     calbec       :    189.49s CPU    191.38s WALL (   13175 calls)
     fft          :      0.33s CPU      0.33s WALL (      12 calls)
     ffts         :      0.17s CPU      0.17s WALL (       1 calls)
     fftw         :    495.98s CPU    527.96s WALL ( 2387898 calls)
     interpolate  :      0.17s CPU      0.17s WALL (       1 calls)
     davcio       :      0.46s CPU      6.72s WALL (     648 calls)

     Parallel routines

     PWSCF        :      2h 4m CPU      2h 5m WALL


   This run was terminated on:  19:51:44  24Sep2026            

=------------------------------------------------------------------------------=
   JOB DONE.
=------------------------------------------------------------------------------=
