
     Program PWSCF v.7.5 starts on 22Sep2026 at 14:57:22 

     This program is part of the open-source Quantum ESPRESSO suite
     for quantum simulation of materials; please cite
         "P. Giannozzi et al., J. Phys.:Condens. Matter 21 395502 (2009);
         "P. Giannozzi et al., J. Phys.:Condens. Matter 29 465901 (2017);
         "P. Giannozzi et al., J. Chem. Phys. 152 154105 (2020);
          URL http://www.quantum-espresso.org", 
     in publications or presentations arising from this work. More details at
     http://www.quantum-espresso.org/quote

     Parallel version (MPI), running on     8 processors

     MPI processes distributed on     1 nodes
     6810 MiB available memory on the printing compute node when the environment starts

     Waiting for input...
     Reading input from standard input

     Current dimensions of program PWSCF are:
     Max number of different atomic species (ntypx) = 10
     Max number of k-points (npk) =  40000
     Max angular momentum in pseudopotentials (lmaxx) =  4
     file Ti.pbe-spn-kjpaw_psl.1.0.0.UPF: wavefunction(s)  3S 3P 3D renormalized
     file C.pbe-n-kjpaw_psl.1.0.0.UPF: wavefunction(s)  2S 2P renormalized
     file O.pbe-n-kjpaw_psl.1.0.0.UPF: wavefunction(s)  2S 2P renormalized
     Message from routine setup:
     using ibrav=0 with symmetry is DISCOURAGED, use correct ibrav instead

     R & G space division:  proc/nbgrp/npool/nimage =       8
     Subspace diagonalization in iterative solution of the eigenvalue problem:
     a serial algorithm will be used


     Parallelization info
     --------------------
     sticks:   dense  smooth     PW     G-vecs:    dense   smooth      PW
     Min          91      45     13                13919     4919     805
     Max          92      46     14                13932     4946     828
     Sum         733     361    109               111423    39451    6557

     Using Slab Decomposition



     bravais-lattice index     =            0
     lattice parameter (alat)  =       5.7299  a.u.
     unit-cell volume          =    1151.2252 (a.u.)^3
     number of atoms/cell      =            5
     number of atomic types    =            3
     number of electrons       =        40.00
     number of Kohn-Sham states=           24
     kinetic-energy cutoff     =      40.0000  Ry
     charge density cutoff     =     320.0000  Ry
     scf convergence threshold =      1.0E-08
     mixing beta               =       0.7000
     number of iterations used =            8  plain     mixing
     energy convergence thresh.=      1.0E-04
     force convergence thresh. =      1.0E-03
     Exchange-correlation= SLA  PW   PBX  PBC
                           (   1   4   3   4   0   0   0)
     nstep                     =          250


     celldm(1)=   5.729914  celldm(2)=   0.000000  celldm(3)=   0.000000
     celldm(4)=   0.000000  celldm(5)=   0.000000  celldm(6)=   0.000000

     crystal axes: (cart. coord. in units of alat)
               a(1) = (   1.000000   0.000000   0.000000 )  
               a(2) = (  -0.500000   0.866025   0.000000 )  
               a(3) = (   0.000000   0.000000   7.066191 )  

     reciprocal axes: (cart. coord. in units 2 pi/alat)
               b(1) = (  1.000000  0.577350 -0.000000 )  
               b(2) = (  0.000000  1.154701  0.000000 )  
               b(3) = (  0.000000 -0.000000  0.141519 )  


     PseudoPot. # 1 for Ti read from file:
     ../pseudopotential/Ti.pbe-spn-kjpaw_psl.1.0.0.UPF
     MD5 check sum: 01f69b0d8ba4438b2e03ac6ea4af1c0b
     Pseudo is Projector augmented-wave + core cor, Zval = 12.0
     Generated using &quot;atomic&quot; code by A. Dal Corso  v.6.2.2
     Shape of augmentation charge: PSQ
     Using radial grid of 1177 points,  6 beta functions with: 
                l(1) =   0
                l(2) =   0
                l(3) =   1
                l(4) =   1
                l(5) =   2
                l(6) =   2
     Q(r) pseudized with 0 coefficients 


     PseudoPot. # 2 for C  read from file:
     ../pseudopotential/C.pbe-n-kjpaw_psl.1.0.0.UPF
     MD5 check sum: 5f16ad9a65e90284d1d834d4ab3b0f7d
     Pseudo is Projector augmented-wave + core cor, Zval =  4.0
     Generated using &quot;atomic&quot; code by A. Dal Corso  v.6.3
     Shape of augmentation charge: PSQ
     Using radial grid of 1073 points,  4 beta functions with: 
                l(1) =   0
                l(2) =   0
                l(3) =   1
                l(4) =   1
     Q(r) pseudized with 0 coefficients 


     PseudoPot. # 3 for O  read from file:
     ../pseudopotential/O.pbe-n-kjpaw_psl.1.0.0.UPF
     MD5 check sum: e99d9cef9b487d1ca56f5b95ecd0fd7a
     Pseudo is Projector augmented-wave + core cor, Zval =  6.0
     Generated using &quot;atomic&quot; code by A. Dal Corso  v.6.3
     Shape of augmentation charge: PSQ
     Using radial grid of 1095 points,  4 beta functions with: 
                l(1) =   0
                l(2) =   0
                l(3) =   1
                l(4) =   1
     Q(r) pseudized with 0 coefficients 


     atomic species   valence    mass     pseudopotential
     Ti               12.00    47.86700     Ti( 1.00)
     C                 4.00    12.01100     C ( 1.00)
     O                 6.00    15.99900     O ( 1.00)

      6 Sym. Ops. (no inversion) found



   Cartesian axes

     site n.     atom                  positions (alat units)
         1        Ti     tau(   1) = (   0.0000000   0.5773480   0.7928097  )
         2        Ti     tau(   2) = (   0.5000000   0.2886740   1.6561834  )
         3        C      tau(   3) = (   0.0000000   0.0000000   1.2244949  )
         4        O      tau(   4) = (   0.0000000   0.5773480   1.9566181  )
         5        O      tau(   5) = (   0.5000000   0.2886740   0.4923717  )

     number of k points=     4  Marzari-Vanderbilt smearing, width (Ry)=  0.0200
                       cart. coord. in units 2pi/alat
        k(    1) = (   0.0000000   0.0000000   0.0000000), wk =   0.1250000
        k(    2) = (   0.0000000   0.2886752   0.0000000), wk =   0.7500000
        k(    3) = (   0.0000000  -0.5773503   0.0000000), wk =   0.3750000
        k(    4) = (   0.2500000   0.4330127   0.0000000), wk =   0.7500000

     Dense  grid:   111423 G-vectors     FFT dimensions: (  36,  36, 240)

     Smooth grid:    39451 G-vectors     FFT dimensions: (  24,  24, 180)

     Estimated max dynamical RAM per process >      55.71 MB

     Estimated total dynamical RAM >     445.65 MB

     Check: negative core charge=   -0.000005

     Initial potential from superposition of free atoms

     starting charge      39.9970, renormalised to      40.0000

     negative rho (up, down):  1.953E-03 0.000E+00
     Starting wfcs are   32 randomized atomic wfcs
     Checking if some PAW data can be deallocated... 

     total cpu time spent up to now is        1.1 secs

     Self-consistent Calculation

     iteration #  1     ecut=    40.00 Ry     beta= 0.70
     Davidson diagonalization with overlap
     ethr =  1.00E-02,  avg # of iterations =  2.0

     negative rho (up, down):  1.527E-03 0.000E+00

     total cpu time spent up to now is        1.6 secs

     total energy              =    -468.18750217 Ry
     estimated scf accuracy    <       2.42412727 Ry

     iteration #  2     ecut=    40.00 Ry     beta= 0.70
     Davidson diagonalization with overlap
     ethr =  6.06E-03,  avg # of iterations =  7.8

     negative rho (up, down):  1.006E-02 0.000E+00

     total cpu time spent up to now is        2.1 secs

     total energy              =    -465.68010621 Ry
     estimated scf accuracy    <      26.01363236 Ry

     iteration #  3     ecut=    40.00 Ry     beta= 0.70
     Davidson diagonalization with overlap
     ethr =  6.06E-03,  avg # of iterations =  6.0

     negative rho (up, down):  2.954E-03 0.000E+00

     total cpu time spent up to now is        5.1 secs

     total energy              =    -469.37494803 Ry
     estimated scf accuracy    <       1.85336328 Ry

     iteration #  4     ecut=    40.00 Ry     beta= 0.70
     Davidson diagonalization with overlap
     ethr =  4.63E-03,  avg # of iterations =  2.5

     negative rho (up, down):  2.467E-03 0.000E+00

     total cpu time spent up to now is        5.5 secs

     total energy              =    -469.56409042 Ry
     estimated scf accuracy    <       0.27092048 Ry

     iteration #  5     ecut=    40.00 Ry     beta= 0.70
     Davidson diagonalization with overlap
     ethr =  6.77E-04,  avg # of iterations =  4.2

     negative rho (up, down):  2.687E-03 0.000E+00

     total cpu time spent up to now is        6.0 secs

     total energy              =    -469.59289566 Ry
     estimated scf accuracy    <       0.12357419 Ry

     iteration #  6     ecut=    40.00 Ry     beta= 0.70
     Davidson diagonalization with overlap
     ethr =  3.09E-04,  avg # of iterations =  2.5

     negative rho (up, down):  2.639E-03 0.000E+00

     total cpu time spent up to now is        6.4 secs

     total energy              =    -469.59155363 Ry
     estimated scf accuracy    <       0.09692166 Ry

     iteration #  7     ecut=    40.00 Ry     beta= 0.70
     Davidson diagonalization with overlap
     ethr =  2.42E-04,  avg # of iterations =  2.0

     negative rho (up, down):  2.550E-03 0.000E+00

     total cpu time spent up to now is        6.8 secs

     total energy              =    -469.58544087 Ry
     estimated scf accuracy    <       0.05602360 Ry

     iteration #  8     ecut=    40.00 Ry     beta= 0.70
     Davidson diagonalization with overlap
     ethr =  1.40E-04,  avg # of iterations =  5.2

     negative rho (up, down):  2.526E-03 0.000E+00

     total cpu time spent up to now is        7.2 secs

     total energy              =    -469.59093438 Ry
     estimated scf accuracy    <       0.01543047 Ry

     iteration #  9     ecut=    40.00 Ry     beta= 0.70
     Davidson diagonalization with overlap
     ethr =  3.86E-05,  avg # of iterations =  5.8

     negative rho (up, down):  2.516E-03 0.000E+00

     total cpu time spent up to now is        7.7 secs

     total energy              =    -469.59713106 Ry
     estimated scf accuracy    <       0.00482093 Ry

     iteration # 10     ecut=    40.00 Ry     beta= 0.70
     Davidson diagonalization with overlap
     ethr =  1.21E-05,  avg # of iterations =  6.5

     negative rho (up, down):  2.517E-03 0.000E+00

     total cpu time spent up to now is        8.1 secs

     total energy              =    -469.59715164 Ry
     estimated scf accuracy    <       0.00344357 Ry

     iteration # 11     ecut=    40.00 Ry     beta= 0.70
     Davidson diagonalization with overlap
     ethr =  8.61E-06,  avg # of iterations =  1.8

     negative rho (up, down):  2.466E-03 0.000E+00

     total cpu time spent up to now is        8.5 secs

     total energy              =    -469.59643811 Ry
     estimated scf accuracy    <       0.00167593 Ry

     iteration # 12     ecut=    40.00 Ry     beta= 0.70
     Davidson diagonalization with overlap
     ethr =  4.19E-06,  avg # of iterations =  6.5

     negative rho (up, down):  2.469E-03 0.000E+00

     total cpu time spent up to now is        9.0 secs

     total energy              =    -469.59708947 Ry
     estimated scf accuracy    <       0.00137583 Ry

     iteration # 13     ecut=    40.00 Ry     beta= 0.70
     Davidson diagonalization with overlap
     ethr =  3.44E-06,  avg # of iterations =  4.0

     negative rho (up, down):  2.471E-03 0.000E+00

     total cpu time spent up to now is        9.4 secs

     total energy              =    -469.59709404 Ry
     estimated scf accuracy    <       0.00032301 Ry

     iteration # 14     ecut=    40.00 Ry     beta= 0.70
     Davidson diagonalization with overlap
     ethr =  8.08E-07,  avg # of iterations =  5.8

     negative rho (up, down):  2.472E-03 0.000E+00

     total cpu time spent up to now is        9.9 secs

     total energy              =    -469.59716933 Ry
     estimated scf accuracy    <       0.00003681 Ry

     iteration # 15     ecut=    40.00 Ry     beta= 0.70
     Davidson diagonalization with overlap
     ethr =  9.20E-08,  avg # of iterations = 10.2

     negative rho (up, down):  2.472E-03 0.000E+00

     total cpu time spent up to now is       10.4 secs

     total energy              =    -469.59717752 Ry
     estimated scf accuracy    <       0.00001080 Ry

     iteration # 16     ecut=    40.00 Ry     beta= 0.70
     Davidson diagonalization with overlap
     ethr =  2.70E-08,  avg # of iterations =  5.8

     negative rho (up, down):  2.472E-03 0.000E+00

     total cpu time spent up to now is       10.9 secs

     total energy              =    -469.59718083 Ry
     estimated scf accuracy    <       0.00000406 Ry

     iteration # 17     ecut=    40.00 Ry     beta= 0.70
     Davidson diagonalization with overlap
     ethr =  1.02E-08,  avg # of iterations =  2.0

     negative rho (up, down):  2.472E-03 0.000E+00

     total cpu time spent up to now is       11.3 secs

     total energy              =    -469.59718124 Ry
     estimated scf accuracy    <       0.00000060 Ry

     iteration # 18     ecut=    40.00 Ry     beta= 0.70
     Davidson diagonalization with overlap
     ethr =  1.49E-09,  avg # of iterations =  5.8

     negative rho (up, down):  2.472E-03 0.000E+00

     total cpu time spent up to now is       11.8 secs

     total energy              =    -469.59718152 Ry
     estimated scf accuracy    <       0.00000008 Ry

     iteration # 19     ecut=    40.00 Ry     beta= 0.70
     Davidson diagonalization with overlap
     ethr =  1.92E-10,  avg # of iterations =  4.0

     negative rho (up, down):  2.472E-03 0.000E+00

     total cpu time spent up to now is       12.2 secs

     total energy              =    -469.59718152 Ry
     estimated scf accuracy    <       0.00000002 Ry

     iteration # 20     ecut=    40.00 Ry     beta= 0.70
     Davidson diagonalization with overlap
     ethr =  6.09E-11,  avg # of iterations =  5.8

     negative rho (up, down):  2.472E-03 0.000E+00

     total cpu time spent up to now is       12.7 secs

     End of self-consistent calculation

          k = 0.0000 0.0000 0.0000 (  4881 PWs)   bands (ev):

   -58.0427 -58.0177 -34.3994 -34.2115 -34.0876 -34.0876 -34.0722 -34.0722
   -19.1685 -19.0894 -11.3179  -6.1413  -5.2911  -5.2911  -4.9419  -4.9418
    -4.7488  -1.4055  -0.2710  -0.2710   0.3649   0.3649   1.1605   1.1605

          k = 0.0000 0.2887 0.0000 (  4914 PWs)   bands (ev):

   -58.0106 -57.9918 -34.3553 -34.3288 -34.3092 -34.1620 -34.1436 -34.1131
   -18.8847 -18.8582 -10.9300  -5.9719  -5.4702  -5.1957  -4.9221  -4.7269
    -4.2032  -3.0897  -1.6766  -1.6562   0.3026   1.1698   1.4825   2.0670

          k = 0.0000-0.5774 0.0000 (  4952 PWs)   bands (ev):

   -57.9762 -57.9680 -34.5812 -34.5386 -34.2350 -34.1966 -34.1654 -34.1561
   -18.6706 -18.6634 -10.0443  -6.6378  -5.7694  -4.7697  -4.7472  -4.5695
    -4.3280  -3.7947  -2.1362  -1.7863   0.0346   1.2759   1.8860   1.9003

          k = 0.2500 0.4330 0.0000 (  4896 PWs)   bands (ev):

   -57.9762 -57.9679 -34.4777 -34.4746 -34.2851 -34.2517 -34.2331 -34.1592
   -18.6574 -18.6557 -10.1427  -5.7446  -5.6875  -5.2261  -4.8452  -4.6014
    -4.3488  -3.0696  -3.0306  -2.7362   0.7266   1.3893   1.4946   1.9688

     the Fermi energy is    -0.1169 ev

!    total energy              =    -469.59718152 Ry
     total all-electron energy =     -3792.900879 Ry
     estimated scf accuracy    <          7.5E-09 Ry
     smearing contrib. (-TS)   =      -0.00113714 Ry
     internal energy E=F+TS    =    -469.59604438 Ry

     The total energy is F=E-TS. E is the sum of the following terms:
     one-electron contribution =   -2661.67944539 Ry
     hartree contribution      =    1333.83134486 Ry
     xc contribution           =     -56.57514799 Ry
     ewald contribution        =    1070.84641900 Ry
     one-center paw contrib.   =    -156.01921486 Ry

     convergence has been achieved in  20 iterations

     negative rho (up, down):  2.472E-03 0.000E+00

     Forces acting on atoms (cartesian axes, Ry/au):

     atom    1 type  1   force =     0.00000000   -0.00000000    0.00068404
     atom    2 type  1   force =     0.00000000    0.00000000   -0.00070018
     atom    3 type  2   force =     0.00000000   -0.00000000    0.00005072
     atom    4 type  3   force =     0.00000000    0.00000000   -0.00265371
     atom    5 type  3   force =     0.00000000    0.00000000    0.00261913

     Total force =     0.003855     Total SCF correction =     0.000322

     BFGS Geometry Optimization
     Energy error            =      1.5E-05 Ry
     Gradient error          =      2.7E-03 Ry/Bohr

     number of scf cycles    =   1
     number of bfgs steps    =   0

     energy             new  =    -469.5971815209 Ry

     new trust radius        =       0.0026537066 bohr
     new conv_thr            =       0.0000000100 Ry


ATOMIC_POSITIONS (angstrom)
Ti               0.0000000000        1.7506000000        2.4042719793
Ti               1.5160700000        0.8753000000        5.0214094814
C                0.0000000000       -0.0000000000        3.7128668383
O                0.0000000000        1.7506000000        5.9313357189
O                1.5160700000        0.8753000000        1.4943259821



     Writing config-only to output data dir ./tmp/ti2co2.save/ :
     XML data file
     NEW-OLD atomic charge density approx. for the potential

     Check: negative core charge=   -0.000005

     negative rho (up, down):  2.476E-03 0.000E+00

     total cpu time spent up to now is       13.1 secs

     Self-consistent Calculation

     iteration #  1     ecut=    40.00 Ry     beta= 0.70
     Davidson diagonalization with overlap
     ethr =  1.00E-06,  avg # of iterations =  2.0

     Threshold (ethr) on eigenvalues was too large:
     Diagonalizing with lowered threshold

     Davidson diagonalization with overlap
     ethr =  3.16E-09,  avg # of iterations =  6.2

     negative rho (up, down):  2.475E-03 0.000E+00

     total cpu time spent up to now is       14.0 secs

     total energy              =    -469.59719390 Ry
     estimated scf accuracy    <       0.00000211 Ry

     iteration #  2     ecut=    40.00 Ry     beta= 0.70
     Davidson diagonalization with overlap
     ethr =  5.27E-09,  avg # of iterations =  5.2

     negative rho (up, down):  2.475E-03 0.000E+00

     total cpu time spent up to now is       14.4 secs

     total energy              =    -469.59719339 Ry
     estimated scf accuracy    <       0.00000595 Ry

     iteration #  3     ecut=    40.00 Ry     beta= 0.70
     Davidson diagonalization with overlap
     ethr =  5.27E-09,  avg # of iterations =  5.5

     negative rho (up, down):  2.475E-03 0.000E+00

     total cpu time spent up to now is       14.9 secs

     total energy              =    -469.59719417 Ry
     estimated scf accuracy    <       0.00000431 Ry

     iteration #  4     ecut=    40.00 Ry     beta= 0.70
     Davidson diagonalization with overlap
     ethr =  5.27E-09,  avg # of iterations =  5.8

     negative rho (up, down):  2.475E-03 0.000E+00

     total cpu time spent up to now is       15.4 secs

     total energy              =    -469.59719458 Ry
     estimated scf accuracy    <       0.00000260 Ry

     iteration #  5     ecut=    40.00 Ry     beta= 0.70
     Davidson diagonalization with overlap
     ethr =  5.27E-09,  avg # of iterations =  2.5

     negative rho (up, down):  2.475E-03 0.000E+00

     total cpu time spent up to now is       15.8 secs

     total energy              =    -469.59719478 Ry
     estimated scf accuracy    <       0.00000011 Ry

     iteration #  6     ecut=    40.00 Ry     beta= 0.70
     Davidson diagonalization with overlap
     ethr =  2.64E-10,  avg # of iterations =  6.5

     negative rho (up, down):  2.475E-03 0.000E+00

     total cpu time spent up to now is       16.3 secs

     total energy              =    -469.59719485 Ry
     estimated scf accuracy    <       0.00000006 Ry

     iteration #  7     ecut=    40.00 Ry     beta= 0.70
     Davidson diagonalization with overlap
     ethr =  1.61E-10,  avg # of iterations =  1.8

     negative rho (up, down):  2.475E-03 0.000E+00

     total cpu time spent up to now is       16.7 secs

     total energy              =    -469.59719485 Ry
     estimated scf accuracy    <       0.00000002 Ry

     iteration #  8     ecut=    40.00 Ry     beta= 0.70
     Davidson diagonalization with overlap
     ethr =  3.88E-11,  avg # of iterations =  5.5

     negative rho (up, down):  2.475E-03 0.000E+00

     total cpu time spent up to now is       17.1 secs

     End of self-consistent calculation

          k = 0.0000 0.0000 0.0000 (  4881 PWs)   bands (ev):

   -58.0381 -58.0130 -34.3951 -34.2069 -34.0831 -34.0831 -34.0677 -34.0677
   -19.1682 -19.0889 -11.3125  -6.1393  -5.2932  -5.2932  -4.9438  -4.9438
    -4.7471  -1.4001  -0.2661  -0.2661   0.3688   0.3688   1.1654   1.1654

          k = 0.0000 0.2887 0.0000 (  4914 PWs)   bands (ev):

   -58.0059 -57.9871 -34.3511 -34.3245 -34.3049 -34.1574 -34.1392 -34.1086
   -18.8841 -18.8575 -10.9257  -5.9722  -5.4702  -5.1950  -4.9233  -4.7280
    -4.2014  -3.0852  -1.6734  -1.6505   0.3086   1.1746   1.4886   2.0717

          k = 0.0000-0.5774 0.0000 (  4952 PWs)   bands (ev):

   -57.9715 -57.9633 -34.5772 -34.5345 -34.2306 -34.1922 -34.1609 -34.1516
   -18.6698 -18.6626 -10.0403  -6.6371  -5.7689  -4.7695  -4.7454  -4.5696
    -4.3263  -3.7897  -2.1311  -1.7836   0.0417   1.2828   1.8901   1.9036

          k = 0.2500 0.4330 0.0000 (  4896 PWs)   bands (ev):

   -57.9716 -57.9632 -34.4737 -34.4704 -34.2808 -34.2473 -34.2287 -34.1546
   -18.6565 -18.6548 -10.1388  -5.7441  -5.6865  -5.2248  -4.8449  -4.6011
    -4.3480  -3.0653  -3.0253  -2.7313   0.7309   1.3937   1.4993   1.9724

     the Fermi energy is    -0.1110 ev

!    total energy              =    -469.59719485 Ry
     total all-electron energy =     -3792.900893 Ry
     estimated scf accuracy    <          7.9E-09 Ry
     smearing contrib. (-TS)   =      -0.00112457 Ry
     internal energy E=F+TS    =    -469.59607028 Ry

     The total energy is F=E-TS. E is the sum of the following terms:
     one-electron contribution =   -2662.49927122 Ry
     hartree contribution      =    1334.24721954 Ry
     xc contribution           =     -56.57709447 Ry
     ewald contribution        =    1071.25232218 Ry
     one-center paw contrib.   =    -156.01924630 Ry

     convergence has been achieved in   8 iterations

     negative rho (up, down):  2.475E-03 0.000E+00

     Forces acting on atoms (cartesian axes, Ry/au):

     atom    1 type  1   force =     0.00000000   -0.00000000    0.00096611
     atom    2 type  1   force =     0.00000000    0.00000000   -0.00096328
     atom    3 type  2   force =     0.00000000   -0.00000000    0.00002163
     atom    4 type  3   force =     0.00000000   -0.00000000   -0.00200950
     atom    5 type  3   force =     0.00000000   -0.00000000    0.00198504

     Total force =     0.003137     Total SCF correction =     0.000485
     SCF correction compared to forces is large: reduce conv_thr to get better values
     Energy error            =      1.3E-05 Ry
     Gradient error          =      2.0E-03 Ry/Bohr

     number of scf cycles    =   2
     number of bfgs steps    =   1

     energy             old  =    -469.5971815209 Ry
     energy             new  =    -469.5971948500 Ry

     CASE: energy            _new < energy            _old

     new trust radius        =       0.0029190773 bohr
     new conv_thr            =            1.0E-10 Ry


ATOMIC_POSITIONS (angstrom)
Ti               0.0000000000        1.7506000000        2.4049670604
Ti               1.5160700000        0.8753000000        5.0207149766
C                0.0000000000       -0.0000000000        3.7128852464
O                0.0000000000        1.7506000000        5.9297910098
O                1.5160700000        0.8753000000        1.4958517068



     Writing config-only to output data dir ./tmp/ti2co2.save/ :
     XML data file
     NEW-OLD atomic charge density approx. for the potential

     Check: negative core charge=   -0.000005

     negative rho (up, down):  2.481E-03 0.000E+00

     total cpu time spent up to now is       17.6 secs

     Self-consistent Calculation

     iteration #  1     ecut=    40.00 Ry     beta= 0.70
     Davidson diagonalization with overlap
     ethr =  1.00E-06,  avg # of iterations =  2.0

     Threshold (ethr) on eigenvalues was too large:
     Diagonalizing with lowered threshold

     Davidson diagonalization with overlap
     ethr =  6.54E-09,  avg # of iterations =  5.8

     negative rho (up, down):  2.480E-03 0.000E+00

     total cpu time spent up to now is       18.4 secs

     total energy              =    -469.59720545 Ry
     estimated scf accuracy    <       0.00000332 Ry

     iteration #  2     ecut=    40.00 Ry     beta= 0.70
     Davidson diagonalization with overlap
     ethr =  8.31E-09,  avg # of iterations =  6.0

     negative rho (up, down):  2.481E-03 0.000E+00

     total cpu time spent up to now is       18.9 secs

     total energy              =    -469.59720166 Ry
     estimated scf accuracy    <       0.00004190 Ry

     iteration #  3     ecut=    40.00 Ry     beta= 0.70
     Davidson diagonalization with overlap
     ethr =  8.31E-09,  avg # of iterations =  7.0

     negative rho (up, down):  2.480E-03 0.000E+00

     total cpu time spent up to now is       19.4 secs

     total energy              =    -469.59720601 Ry
     estimated scf accuracy    <       0.00001056 Ry

     iteration #  4     ecut=    40.00 Ry     beta= 0.70
     Davidson diagonalization with overlap
     ethr =  8.31E-09,  avg # of iterations =  5.5

     negative rho (up, down):  2.480E-03 0.000E+00

     total cpu time spent up to now is       19.9 secs

     total energy              =    -469.59720712 Ry
     estimated scf accuracy    <       0.00000115 Ry

     iteration #  5     ecut=    40.00 Ry     beta= 0.70
     Davidson diagonalization with overlap
     ethr =  2.87E-09,  avg # of iterations =  2.8

     negative rho (up, down):  2.479E-03 0.000E+00

     total cpu time spent up to now is       20.3 secs

     total energy              =    -469.59720725 Ry
     estimated scf accuracy    <       0.00000012 Ry

     iteration #  6     ecut=    40.00 Ry     beta= 0.70
     Davidson diagonalization with overlap
     ethr =  2.88E-10,  avg # of iterations =  6.0

     negative rho (up, down):  2.479E-03 0.000E+00

     total cpu time spent up to now is       20.8 secs

     total energy              =    -469.59720733 Ry
     estimated scf accuracy    <       0.00000007 Ry

     iteration #  7     ecut=    40.00 Ry     beta= 0.70
     Davidson diagonalization with overlap
     ethr =  1.65E-10,  avg # of iterations =  1.5

     negative rho (up, down):  2.479E-03 0.000E+00

     total cpu time spent up to now is       21.2 secs

     total energy              =    -469.59720732 Ry
     estimated scf accuracy    <       0.00000004 Ry

     iteration #  8     ecut=    40.00 Ry     beta= 0.70
     Davidson diagonalization with overlap
     ethr =  9.13E-11,  avg # of iterations =  4.8

     negative rho (up, down):  2.479E-03 0.000E+00

     total cpu time spent up to now is       21.7 secs

     total energy              =    -469.59720734 Ry
     estimated scf accuracy    <          7.9E-09 Ry

     iteration #  9     ecut=    40.00 Ry     beta= 0.70
     Davidson diagonalization with overlap
     ethr =  1.97E-11,  avg # of iterations =  4.2

     negative rho (up, down):  2.479E-03 0.000E+00

     total cpu time spent up to now is       22.1 secs

     total energy              =    -469.59720734 Ry
     estimated scf accuracy    <          6.5E-09 Ry

     iteration # 10     ecut=    40.00 Ry     beta= 0.70
     Davidson diagonalization with overlap
     ethr =  1.63E-11,  avg # of iterations =  1.5

     negative rho (up, down):  2.479E-03 0.000E+00

     total cpu time spent up to now is       22.5 secs

     total energy              =    -469.59720734 Ry
     estimated scf accuracy    <          2.7E-09 Ry

     iteration # 11     ecut=    40.00 Ry     beta= 0.70
     Davidson diagonalization with overlap
     ethr =  6.66E-12,  avg # of iterations =  5.0

     negative rho (up, down):  2.479E-03 0.000E+00

     total cpu time spent up to now is       23.0 secs

     total energy              =    -469.59720734 Ry
     estimated scf accuracy    <          2.3E-10 Ry

     iteration # 12     ecut=    40.00 Ry     beta= 0.70
     Davidson diagonalization with overlap
     ethr =  5.80E-13,  avg # of iterations =  6.5

     negative rho (up, down):  2.479E-03 0.000E+00

     total cpu time spent up to now is       23.4 secs

     End of self-consistent calculation

          k = 0.0000 0.0000 0.0000 (  4881 PWs)   bands (ev):

   -58.0341 -58.0089 -34.3918 -34.2030 -34.0793 -34.0793 -34.0638 -34.0638
   -19.1682 -19.0886 -11.3088  -6.1384  -5.2956  -5.2955  -4.9454  -4.9454
    -4.7452  -1.3955  -0.2639  -0.2639   0.3711   0.3711   1.1699   1.1699

          k = 0.0000 0.2887 0.0000 (  4914 PWs)   bands (ev):

   -58.0020 -57.9831 -34.3477 -34.3211 -34.3012 -34.1535 -34.1355 -34.1047
   -18.8837 -18.8570 -10.9232  -5.9727  -5.4705  -5.1949  -4.9247  -4.7288
    -4.1999  -3.0825  -1.6727  -1.6459   0.3130   1.1787   1.4944   2.0756

          k = 0.0000-0.5774 0.0000 (  4952 PWs)   bands (ev):

   -57.9675 -57.9592 -34.5739 -34.5311 -34.2270 -34.1885 -34.1570 -34.1478
   -18.6692 -18.6620 -10.0386  -6.6373  -5.7684  -4.7696  -4.7444  -4.5696
    -4.3252  -3.7855  -2.1267  -1.7832   0.0468   1.2892   1.8931   1.9066

          k = 0.2500 0.4330 0.0000 (  4896 PWs)   bands (ev):

   -57.9676 -57.9592 -34.4703 -34.4670 -34.2772 -34.2435 -34.2251 -34.1508
   -18.6559 -18.6542 -10.1371  -5.7440  -5.6859  -5.2248  -4.8447  -4.6015
    -4.3472  -3.0616  -3.0219  -2.7277   0.7342   1.3975   1.5036   1.9760

     the Fermi energy is    -0.1076 ev

!    total energy              =    -469.59720734 Ry
     total all-electron energy =     -3792.900905 Ry
     estimated scf accuracy    <          1.4E-11 Ry
     smearing contrib. (-TS)   =      -0.00110718 Ry
     internal energy E=F+TS    =    -469.59610015 Ry

     The total energy is F=E-TS. E is the sum of the following terms:
     one-electron contribution =   -2663.53836849 Ry
     hartree contribution      =    1334.77089269 Ry
     xc contribution           =     -56.57919023 Ry
     ewald contribution        =    1071.76985414 Ry
     one-center paw contrib.   =    -156.01928826 Ry

     convergence has been achieved in  12 iterations

     negative rho (up, down):  2.479E-03 0.000E+00

     Forces acting on atoms (cartesian axes, Ry/au):

     atom    1 type  1   force =     0.00000000   -0.00000000    0.00094002
     atom    2 type  1   force =     0.00000000    0.00000000   -0.00093928
     atom    3 type  2   force =     0.00000000   -0.00000000    0.00000389
     atom    4 type  3   force =     0.00000000    0.00000000   -0.00144908
     atom    5 type  3   force =     0.00000000    0.00000000    0.00144445

     Total force =     0.002440     Total SCF correction =     0.000017
     Energy error            =      1.2E-05 Ry
     Gradient error          =      1.4E-03 Ry/Bohr

     number of scf cycles    =   3
     number of bfgs steps    =   2

     energy             old  =    -469.5971948500 Ry
     energy             new  =    -469.5972073359 Ry

     CASE: energy            _new < energy            _old

     new trust radius        =       0.0043786159 bohr
     new conv_thr            =            1.0E-10 Ry


ATOMIC_POSITIONS (angstrom)
Ti               0.0000000000        1.7506000000        2.4062271876
Ti               1.5160700000        0.8753000000        5.0194531711
C                0.0000000000       -0.0000000000        3.7129020170
O                0.0000000000        1.7506000000        5.9274739460
O                1.5160700000        0.8753000000        1.4981536783



     Writing config-only to output data dir ./tmp/ti2co2.save/ :
     XML data file
     NEW-OLD atomic charge density approx. for the potential

     Check: negative core charge=   -0.000005

     negative rho (up, down):  2.490E-03 0.000E+00

     total cpu time spent up to now is       23.9 secs

     Self-consistent Calculation

     iteration #  1     ecut=    40.00 Ry     beta= 0.70
     Davidson diagonalization with overlap
     ethr =  1.00E-06,  avg # of iterations =  3.0

     Threshold (ethr) on eigenvalues was too large:
     Diagonalizing with lowered threshold

     Davidson diagonalization with overlap
     ethr =  1.47E-08,  avg # of iterations =  5.5

     negative rho (up, down):  2.488E-03 0.000E+00

     total cpu time spent up to now is       24.8 secs

     total energy              =    -469.59721634 Ry
     estimated scf accuracy    <       0.00000775 Ry

     iteration #  2     ecut=    40.00 Ry     beta= 0.70
     Davidson diagonalization with overlap
     ethr =  1.94E-08,  avg # of iterations =  6.0

     negative rho (up, down):  2.490E-03 0.000E+00

     total cpu time spent up to now is       25.3 secs

     total energy              =    -469.59721470 Ry
     estimated scf accuracy    <       0.00002848 Ry

     iteration #  3     ecut=    40.00 Ry     beta= 0.70
     Davidson diagonalization with overlap
     ethr =  1.94E-08,  avg # of iterations =  5.8

     negative rho (up, down):  2.488E-03 0.000E+00

     total cpu time spent up to now is       25.7 secs

     total energy              =    -469.59722022 Ry
     estimated scf accuracy    <       0.00000215 Ry

     iteration #  4     ecut=    40.00 Ry     beta= 0.70
     Davidson diagonalization with overlap
     ethr =  5.39E-09,  avg # of iterations =  2.5

     negative rho (up, down):  2.487E-03 0.000E+00

     total cpu time spent up to now is       26.2 secs

     total energy              =    -469.59722045 Ry
     estimated scf accuracy    <       0.00000035 Ry

     iteration #  5     ecut=    40.00 Ry     beta= 0.70
     Davidson diagonalization with overlap
     ethr =  8.63E-10,  avg # of iterations =  6.2

     negative rho (up, down):  2.487E-03 0.000E+00

     total cpu time spent up to now is       26.7 secs

     total energy              =    -469.59722064 Ry
     estimated scf accuracy    <       0.00000020 Ry

     iteration #  6     ecut=    40.00 Ry     beta= 0.70
     Davidson diagonalization with overlap
     ethr =  5.12E-10,  avg # of iterations =  3.8

     negative rho (up, down):  2.487E-03 0.000E+00

     total cpu time spent up to now is       27.1 secs

     total energy              =    -469.59722064 Ry
     estimated scf accuracy    <       0.00000024 Ry

     iteration #  7     ecut=    40.00 Ry     beta= 0.70
     Davidson diagonalization with overlap
     ethr =  5.12E-10,  avg # of iterations =  1.8

     negative rho (up, down):  2.487E-03 0.000E+00

     total cpu time spent up to now is       27.5 secs

     total energy              =    -469.59722063 Ry
     estimated scf accuracy    <       0.00000008 Ry

     iteration #  8     ecut=    40.00 Ry     beta= 0.70
     Davidson diagonalization with overlap
     ethr =  1.94E-10,  avg # of iterations =  6.0

     negative rho (up, down):  2.487E-03 0.000E+00

     total cpu time spent up to now is       28.0 secs

     total energy              =    -469.59722065 Ry
     estimated scf accuracy    <       0.00000002 Ry

     iteration #  9     ecut=    40.00 Ry     beta= 0.70
     Davidson diagonalization with overlap
     ethr =  4.68E-11,  avg # of iterations =  2.0

     negative rho (up, down):  2.487E-03 0.000E+00

     total cpu time spent up to now is       28.4 secs

     total energy              =    -469.59722065 Ry
     estimated scf accuracy    <          9.6E-09 Ry

     iteration # 10     ecut=    40.00 Ry     beta= 0.70
     Davidson diagonalization with overlap
     ethr =  2.40E-11,  avg # of iterations =  3.0

     negative rho (up, down):  2.487E-03 0.000E+00

     total cpu time spent up to now is       28.8 secs

     total energy              =    -469.59722065 Ry
     estimated scf accuracy    <          2.5E-09 Ry

     iteration # 11     ecut=    40.00 Ry     beta= 0.70
     Davidson diagonalization with overlap
     ethr =  6.28E-12,  avg # of iterations =  6.5

     negative rho (up, down):  2.487E-03 0.000E+00

     total cpu time spent up to now is       29.3 secs

     total energy              =    -469.59722065 Ry
     estimated scf accuracy    <          3.2E-10 Ry

     iteration # 12     ecut=    40.00 Ry     beta= 0.70
     Davidson diagonalization with overlap
     ethr =  8.07E-13,  avg # of iterations =  3.0

     negative rho (up, down):  2.487E-03 0.000E+00

     total cpu time spent up to now is       29.7 secs

     End of self-consistent calculation

          k = 0.0000 0.0000 0.0000 (  4881 PWs)   bands (ev):

   -58.0295 -58.0041 -34.3882 -34.1983 -34.0748 -34.0748 -34.0592 -34.0591
   -19.1682 -19.0881 -11.3052  -6.1381  -5.2992  -5.2992  -4.9474  -4.9474
    -4.7424  -1.3899  -0.2632  -0.2631   0.3728   0.3728   1.1757   1.1757

          k = 0.0000 0.2887 0.0000 (  4914 PWs)   bands (ev):

   -57.9973 -57.9783 -34.3436 -34.3174 -34.2968 -34.1487 -34.1311 -34.1000
   -18.8831 -18.8563 -10.9216  -5.9738  -5.4710  -5.1954  -4.9268  -4.7299
    -4.1979  -3.0805  -1.6740  -1.6404   0.3175   1.1835   1.5020   2.0804

          k = 0.0000-0.5774 0.0000 (  4952 PWs)   bands (ev):

   -57.9628 -57.9544 -34.5701 -34.5270 -34.2229 -34.1842 -34.1525 -34.1431
   -18.6684 -18.6612 -10.0383  -6.6386  -5.7678  -4.7701  -4.7438  -4.5697
    -4.3242  -3.7804  -2.1211  -1.7851   0.0523   1.2976   1.8962   1.9104

          k = 0.2500 0.4330 0.0000 (  4896 PWs)   bands (ev):

   -57.9628 -57.9543 -34.4663 -34.4630 -34.2730 -34.2390 -34.2209 -34.1462
   -18.6551 -18.6533 -10.1369  -5.7440  -5.6853  -5.2262  -4.8445  -4.6028
    -4.3462  -3.0571  -3.0190  -2.7240   0.7378   1.4021   1.5091   1.9805

     the Fermi energy is    -0.1048 ev

!    total energy              =    -469.59722065 Ry
     total all-electron energy =     -3792.900918 Ry
     estimated scf accuracy    <          6.5E-11 Ry
     smearing contrib. (-TS)   =      -0.00107778 Ry
     internal energy E=F+TS    =    -469.59614287 Ry

     The total energy is F=E-TS. E is the sum of the following terms:
     one-electron contribution =   -2665.20490475 Ry
     hartree contribution      =    1335.60943599 Ry
     xc contribution           =     -56.58227617 Ry
     ewald contribution        =    1072.60095820 Ry
     one-center paw contrib.   =    -156.01935614 Ry

     convergence has been achieved in  12 iterations

     negative rho (up, down):  2.487E-03 0.000E+00

     Forces acting on atoms (cartesian axes, Ry/au):

     atom    1 type  1   force =     0.00000000    0.00000000    0.00067473
     atom    2 type  1   force =     0.00000000    0.00000000   -0.00067085
     atom    3 type  2   force =     0.00000000    0.00000000   -0.00001180
     atom    4 type  3   force =     0.00000000    0.00000000   -0.00071677
     atom    5 type  3   force =     0.00000000    0.00000000    0.00072468

     Total force =     0.001394     Total SCF correction =     0.000044
     Energy error            =      1.3E-05 Ry
     Gradient error          =      7.2E-04 Ry/Bohr

     bfgs converged in   4 scf cycles and   3 bfgs steps
     (criteria: energy <  1.0E-04 Ry, force <  1.0E-03 Ry/Bohr)

     End of BFGS Geometry Optimization

     Final energy             =    -469.5972206520 Ry

     File ./tmp/ti2co2.bfgs deleted, as requested
Begin final coordinates

ATOMIC_POSITIONS (angstrom)
Ti               0.0000000000        1.7506000000        2.4062271876
Ti               1.5160700000        0.8753000000        5.0194531711
C                0.0000000000       -0.0000000000        3.7129020170
O                0.0000000000        1.7506000000        5.9274739460
O                1.5160700000        0.8753000000        1.4981536783
End final coordinates



     Writing all to output data dir ./tmp/ti2co2.save/ :
     XML data file, charge density, pseudopotentials, collected wavefunctions

     init_run     :      0.99s CPU      1.00s WALL (       1 calls)
     electrons    :     24.58s CPU     27.32s WALL (       4 calls)
     update_pot   :      0.32s CPU      0.30s WALL (       3 calls)
     forces       :      0.67s CPU      0.68s WALL (       4 calls)

     Called by init_run:
     wfcinit      :      0.07s CPU      0.08s WALL (       1 calls)
     potinit      :      0.34s CPU      0.33s WALL (       1 calls)
     hinit0       :      0.39s CPU      0.38s WALL (       1 calls)

     Called by electrons:
     c_bands      :     11.11s CPU     10.66s WALL (      55 calls)
     sum_band     :      4.74s CPU      7.81s WALL (      55 calls)
     v_of_rho     :      0.87s CPU      0.84s WALL (      56 calls)
     newd         :      3.69s CPU      4.12s WALL (      56 calls)
     PAW_pot      :      4.82s CPU      4.54s WALL (      59 calls)
     mix_rho      :      0.12s CPU      0.12s WALL (      55 calls)

     Called by c_bands:
     init_us_2    :      0.11s CPU      0.11s WALL (     472 calls)
     cegterg      :     10.82s CPU     10.39s WALL (     220 calls)

     Called by *egterg:
     cdiaghg      :      0.67s CPU      0.64s WALL (    1198 calls)
     h_psi        :      5.43s CPU      5.33s WALL (    1226 calls)
     s_psi        :      0.82s CPU      0.77s WALL (    1226 calls)
     g_psi        :      0.02s CPU      0.02s WALL (    1002 calls)

     Called by h_psi:
     h_psi:calbec :      1.07s CPU      1.06s WALL (    1226 calls)
     vloc_psi     :      3.52s CPU      3.47s WALL (    1226 calls)
                                        0.00s GPU  (    1226 calls)
     add_vuspsi   :      0.80s CPU      0.78s WALL (    1226 calls)

     General routines
     calbec       :      1.57s CPU      1.53s WALL (    1522 calls)
     fft          :      0.82s CPU      0.79s WALL (     770 calls)
     ffts         :      0.25s CPU      0.24s WALL (     111 calls)
     fftw         :      3.82s CPU      3.76s WALL (   34476 calls)
     interpolate  :      0.29s CPU      0.27s WALL (      56 calls)

     Parallel routines

     PWSCF        :     27.17s CPU     29.93s WALL


   This run was terminated on:  14:57:52  22Sep2026            

=------------------------------------------------------------------------------=
   JOB DONE.
=------------------------------------------------------------------------------=
