
     Program PWSCF v.7.5 starts on 22Sep2026 at 15: 0: 1 

     This program is part of the open-source Quantum ESPRESSO suite
     for quantum simulation of materials; please cite
         "P. Giannozzi et al., J. Phys.:Condens. Matter 21 395502 (2009);
         "P. Giannozzi et al., J. Phys.:Condens. Matter 29 465901 (2017);
         "P. Giannozzi et al., J. Chem. Phys. 152 154105 (2020);
          URL http://www.quantum-espresso.org", 
     in publications or presentations arising from this work. More details at
     http://www.quantum-espresso.org/quote

     Parallel version (MPI), running on     8 processors

     MPI processes distributed on     1 nodes
     6812 MiB available memory on the printing compute node when the environment starts

     Waiting for input...
     Reading input from standard input

     Current dimensions of program PWSCF are:
     Max number of different atomic species (ntypx) = 10
     Max number of k-points (npk) =  40000
     Max angular momentum in pseudopotentials (lmaxx) =  4
     file Ti.pbe-spn-kjpaw_psl.1.0.0.UPF: wavefunction(s)  3S 3P 3D renormalized
     file C.pbe-n-kjpaw_psl.1.0.0.UPF: wavefunction(s)  2S 2P renormalized
     file O.pbe-n-kjpaw_psl.1.0.0.UPF: wavefunction(s)  2S 2P renormalized
     Message from routine setup:
     using ibrav=0 with symmetry is DISCOURAGED, use correct ibrav instead

     R & G space division:  proc/nbgrp/npool/nimage =       8
     Subspace diagonalization in iterative solution of the eigenvalue problem:
     a serial algorithm will be used


     Parallelization info
     --------------------
     sticks:   dense  smooth     PW     G-vecs:    dense   smooth      PW
     Min          91      45     14                13919     4919     847
     Max          92      46     17                13932     4944     862
     Sum         733     361    121               111423    39451    6847

     Using Slab Decomposition



     bravais-lattice index     =            0
     lattice parameter (alat)  =       5.7299  a.u.
     unit-cell volume          =    1151.2252 (a.u.)^3
     number of atoms/cell      =            5
     number of atomic types    =            3
     number of electrons       =        40.00
     number of Kohn-Sham states=           24
     kinetic-energy cutoff     =      40.0000  Ry
     charge density cutoff     =     320.0000  Ry
     scf convergence threshold =      1.0E-08
     mixing beta               =       0.7000
     number of iterations used =            8  plain     mixing
     Exchange-correlation= SLA  PW   PBX  PBC
                           (   1   4   3   4   0   0   0)

     celldm(1)=   5.729914  celldm(2)=   0.000000  celldm(3)=   0.000000
     celldm(4)=   0.000000  celldm(5)=   0.000000  celldm(6)=   0.000000

     crystal axes: (cart. coord. in units of alat)
               a(1) = (   1.000000   0.000000   0.000000 )  
               a(2) = (  -0.500000   0.866025   0.000000 )  
               a(3) = (   0.000000   0.000000   7.066191 )  

     reciprocal axes: (cart. coord. in units 2 pi/alat)
               b(1) = (  1.000000  0.577350 -0.000000 )  
               b(2) = (  0.000000  1.154701  0.000000 )  
               b(3) = (  0.000000 -0.000000  0.141519 )  


     PseudoPot. # 1 for Ti read from file:
     ../pseudopotential/Ti.pbe-spn-kjpaw_psl.1.0.0.UPF
     MD5 check sum: 01f69b0d8ba4438b2e03ac6ea4af1c0b
     Pseudo is Projector augmented-wave + core cor, Zval = 12.0
     Generated using &quot;atomic&quot; code by A. Dal Corso  v.6.2.2
     Shape of augmentation charge: PSQ
     Using radial grid of 1177 points,  6 beta functions with: 
                l(1) =   0
                l(2) =   0
                l(3) =   1
                l(4) =   1
                l(5) =   2
                l(6) =   2
     Q(r) pseudized with 0 coefficients 


     PseudoPot. # 2 for C  read from file:
     ../pseudopotential/C.pbe-n-kjpaw_psl.1.0.0.UPF
     MD5 check sum: 5f16ad9a65e90284d1d834d4ab3b0f7d
     Pseudo is Projector augmented-wave + core cor, Zval =  4.0
     Generated using &quot;atomic&quot; code by A. Dal Corso  v.6.3
     Shape of augmentation charge: PSQ
     Using radial grid of 1073 points,  4 beta functions with: 
                l(1) =   0
                l(2) =   0
                l(3) =   1
                l(4) =   1
     Q(r) pseudized with 0 coefficients 


     PseudoPot. # 3 for O  read from file:
     ../pseudopotential/O.pbe-n-kjpaw_psl.1.0.0.UPF
     MD5 check sum: e99d9cef9b487d1ca56f5b95ecd0fd7a
     Pseudo is Projector augmented-wave + core cor, Zval =  6.0
     Generated using &quot;atomic&quot; code by A. Dal Corso  v.6.3
     Shape of augmentation charge: PSQ
     Using radial grid of 1095 points,  4 beta functions with: 
                l(1) =   0
                l(2) =   0
                l(3) =   1
                l(4) =   1
     Q(r) pseudized with 0 coefficients 


     atomic species   valence    mass     pseudopotential
     Ti               12.00    47.86700     Ti( 1.00)
     C                 4.00    12.01100     C ( 1.00)
     O                 6.00    15.99900     O ( 1.00)

      6 Sym. Ops. (no inversion) found



   Cartesian axes

     site n.     atom                  positions (alat units)
         1        Ti     tau(   1) = (   0.0000000   0.5773480   0.7935739  )
         2        Ti     tau(   2) = (   0.5000000   0.2886740   1.6554160  )
         3        C      tau(   3) = (   0.0000000  -0.0000000   1.2245154  )
         4        O      tau(   4) = (   0.0000000   0.5773480   1.9548814  )
         5        O      tau(   5) = (   0.5000000   0.2886740   0.4940912  )

     number of k points=     7  Marzari-Vanderbilt smearing, width (Ry)=  0.0200
                       cart. coord. in units 2pi/alat
        k(    1) = (   0.0000000   0.0000000   0.0000000), wk =   0.0555556
        k(    2) = (   0.0000000   0.1924501   0.0000000), wk =   0.3333333
        k(    3) = (   0.0000000   0.3849002   0.0000000), wk =   0.3333333
        k(    4) = (   0.0000000  -0.5773503   0.0000000), wk =   0.1666667
        k(    5) = (   0.1666667   0.2886752   0.0000000), wk =   0.3333333
        k(    6) = (   0.1666667   0.4811253   0.0000000), wk =   0.6666667
        k(    7) = (   0.3333333   0.5773503   0.0000000), wk =   0.1111111

     Dense  grid:   111423 G-vectors     FFT dimensions: (  36,  36, 240)

     Smooth grid:    39451 G-vectors     FFT dimensions: (  24,  24, 180)

     Estimated max dynamical RAM per process >      55.84 MB

     Estimated total dynamical RAM >     446.73 MB

     Check: negative core charge=   -0.000005

     Initial potential from superposition of free atoms

     starting charge      39.9970, renormalised to      40.0000

     negative rho (up, down):  1.962E-03 0.000E+00
     Starting wfcs are   32 randomized atomic wfcs
     Checking if some PAW data can be deallocated... 

     total cpu time spent up to now is        1.2 secs

     Self-consistent Calculation

     iteration #  1     ecut=    40.00 Ry     beta= 0.70
     Davidson diagonalization with overlap
     ethr =  1.00E-02,  avg # of iterations =  2.0

     negative rho (up, down):  1.536E-03 0.000E+00

     total cpu time spent up to now is        1.8 secs

     total energy              =    -468.19935178 Ry
     estimated scf accuracy    <       2.41450326 Ry

     iteration #  2     ecut=    40.00 Ry     beta= 0.70
     Davidson diagonalization with overlap
     ethr =  6.04E-03,  avg # of iterations =  7.7

     negative rho (up, down):  9.661E-03 0.000E+00

     total cpu time spent up to now is        2.6 secs

     total energy              =    -465.39394248 Ry
     estimated scf accuracy    <      28.03587441 Ry

     iteration #  3     ecut=    40.00 Ry     beta= 0.70
     Davidson diagonalization with overlap
     ethr =  6.04E-03,  avg # of iterations =  5.7

     negative rho (up, down):  2.828E-03 0.000E+00

     total cpu time spent up to now is        3.3 secs

     total energy              =    -469.39460491 Ry
     estimated scf accuracy    <       1.68483279 Ry

     iteration #  4     ecut=    40.00 Ry     beta= 0.70
     Davidson diagonalization with overlap
     ethr =  4.21E-03,  avg # of iterations =  2.7

     negative rho (up, down):  2.437E-03 0.000E+00

     total cpu time spent up to now is        3.9 secs

     total energy              =    -469.58353693 Ry
     estimated scf accuracy    <       0.26627282 Ry

     iteration #  5     ecut=    40.00 Ry     beta= 0.70
     Davidson diagonalization with overlap
     ethr =  6.66E-04,  avg # of iterations =  4.9

     negative rho (up, down):  2.758E-03 0.000E+00

     total cpu time spent up to now is        4.5 secs

     total energy              =    -469.61333551 Ry
     estimated scf accuracy    <       0.19221861 Ry

     iteration #  6     ecut=    40.00 Ry     beta= 0.70
     Davidson diagonalization with overlap
     ethr =  4.81E-04,  avg # of iterations =  1.9

     negative rho (up, down):  2.743E-03 0.000E+00

     total cpu time spent up to now is        5.0 secs

     total energy              =    -469.59235476 Ry
     estimated scf accuracy    <       0.13457116 Ry

     iteration #  7     ecut=    40.00 Ry     beta= 0.70
     Davidson diagonalization with overlap
     ethr =  3.36E-04,  avg # of iterations =  2.4

     negative rho (up, down):  2.604E-03 0.000E+00

     total cpu time spent up to now is        5.5 secs

     total energy              =    -469.59007515 Ry
     estimated scf accuracy    <       0.06532848 Ry

     iteration #  8     ecut=    40.00 Ry     beta= 0.70
     Davidson diagonalization with overlap
     ethr =  1.63E-04,  avg # of iterations =  4.0

     negative rho (up, down):  2.591E-03 0.000E+00

     total cpu time spent up to now is        6.0 secs

     total energy              =    -469.59948463 Ry
     estimated scf accuracy    <       0.01448653 Ry

     iteration #  9     ecut=    40.00 Ry     beta= 0.70
     Davidson diagonalization with overlap
     ethr =  3.62E-05,  avg # of iterations =  5.1

     negative rho (up, down):  2.580E-03 0.000E+00

     total cpu time spent up to now is        6.7 secs

     total energy              =    -469.60305994 Ry
     estimated scf accuracy    <       0.01303238 Ry

     iteration # 10     ecut=    40.00 Ry     beta= 0.70
     Davidson diagonalization with overlap
     ethr =  3.26E-05,  avg # of iterations =  2.0

     negative rho (up, down):  2.503E-03 0.000E+00

     total cpu time spent up to now is        7.2 secs

     total energy              =    -469.60208300 Ry
     estimated scf accuracy    <       0.00609404 Ry

     iteration # 11     ecut=    40.00 Ry     beta= 0.70
     Davidson diagonalization with overlap
     ethr =  1.52E-05,  avg # of iterations =  3.3

     negative rho (up, down):  2.473E-03 0.000E+00

     total cpu time spent up to now is        7.7 secs

     total energy              =    -469.60269136 Ry
     estimated scf accuracy    <       0.00063728 Ry

     iteration # 12     ecut=    40.00 Ry     beta= 0.70
     Davidson diagonalization with overlap
     c_bands:  1 eigenvalues not converged
     ethr =  1.59E-06,  avg # of iterations = 11.6

     negative rho (up, down):  2.489E-03 0.000E+00

     total cpu time spent up to now is        8.5 secs

     total energy              =    -469.60302877 Ry
     estimated scf accuracy    <       0.00074663 Ry

     iteration # 13     ecut=    40.00 Ry     beta= 0.70
     Davidson diagonalization with overlap
     c_bands:  1 eigenvalues not converged
     ethr =  1.59E-06,  avg # of iterations =  5.0

     negative rho (up, down):  2.490E-03 0.000E+00

     total cpu time spent up to now is        9.1 secs

     total energy              =    -469.60312939 Ry
     estimated scf accuracy    <       0.00001384 Ry

     iteration # 14     ecut=    40.00 Ry     beta= 0.70
     Davidson diagonalization with overlap
     ethr =  3.46E-08,  avg # of iterations = 10.9

     negative rho (up, down):  2.488E-03 0.000E+00

     total cpu time spent up to now is       10.0 secs

     total energy              =    -469.60315301 Ry
     estimated scf accuracy    <       0.00010095 Ry

     iteration # 15     ecut=    40.00 Ry     beta= 0.70
     Davidson diagonalization with overlap
     ethr =  3.46E-08,  avg # of iterations =  4.3

     negative rho (up, down):  2.488E-03 0.000E+00

     total cpu time spent up to now is       10.6 secs

     total energy              =    -469.60315418 Ry
     estimated scf accuracy    <       0.00002161 Ry

     iteration # 16     ecut=    40.00 Ry     beta= 0.70
     Davidson diagonalization with overlap
     ethr =  3.46E-08,  avg # of iterations =  3.6

     negative rho (up, down):  2.488E-03 0.000E+00

     total cpu time spent up to now is       11.2 secs

     total energy              =    -469.60315498 Ry
     estimated scf accuracy    <       0.00000443 Ry

     iteration # 17     ecut=    40.00 Ry     beta= 0.70
     Davidson diagonalization with overlap
     ethr =  1.11E-08,  avg # of iterations =  5.4

     negative rho (up, down):  2.488E-03 0.000E+00

     total cpu time spent up to now is       11.9 secs

     total energy              =    -469.60315700 Ry
     estimated scf accuracy    <       0.00000054 Ry

     iteration # 18     ecut=    40.00 Ry     beta= 0.70
     Davidson diagonalization with overlap
     ethr =  1.34E-09,  avg # of iterations =  4.9

     negative rho (up, down):  2.488E-03 0.000E+00

     total cpu time spent up to now is       12.5 secs

     total energy              =    -469.60315697 Ry
     estimated scf accuracy    <       0.00000067 Ry

     iteration # 19     ecut=    40.00 Ry     beta= 0.70
     Davidson diagonalization with overlap
     ethr =  1.34E-09,  avg # of iterations =  1.6

     negative rho (up, down):  2.487E-03 0.000E+00

     total cpu time spent up to now is       13.0 secs

     total energy              =    -469.60315709 Ry
     estimated scf accuracy    <       0.00000025 Ry

     iteration # 20     ecut=    40.00 Ry     beta= 0.70
     Davidson diagonalization with overlap
     ethr =  6.14E-10,  avg # of iterations =  2.7

     negative rho (up, down):  2.488E-03 0.000E+00

     total cpu time spent up to now is       13.5 secs

     total energy              =    -469.60315693 Ry
     estimated scf accuracy    <       0.00000064 Ry

     iteration # 21     ecut=    40.00 Ry     beta= 0.70
     Davidson diagonalization with overlap
     ethr =  6.14E-10,  avg # of iterations =  2.0

     negative rho (up, down):  2.487E-03 0.000E+00

     total cpu time spent up to now is       14.1 secs

     total energy              =    -469.60315700 Ry
     estimated scf accuracy    <       0.00000013 Ry

     iteration # 22     ecut=    40.00 Ry     beta= 0.70
     Davidson diagonalization with overlap
     ethr =  3.14E-10,  avg # of iterations =  1.1

     negative rho (up, down):  2.487E-03 0.000E+00

     total cpu time spent up to now is       14.6 secs

     total energy              =    -469.60315700 Ry
     estimated scf accuracy    <       0.00000015 Ry

     iteration # 23     ecut=    40.00 Ry     beta= 0.70
     Davidson diagonalization with overlap
     ethr =  3.14E-10,  avg # of iterations =  1.7

     negative rho (up, down):  2.488E-03 0.000E+00

     total cpu time spent up to now is       15.2 secs

     total energy              =    -469.60315695 Ry
     estimated scf accuracy    <       0.00000010 Ry

     iteration # 24     ecut=    40.00 Ry     beta= 0.70
     Davidson diagonalization with overlap
     ethr =  2.60E-10,  avg # of iterations =  6.6

     negative rho (up, down):  2.488E-03 0.000E+00

     total cpu time spent up to now is       16.0 secs

     total energy              =    -469.60315727 Ry
     estimated scf accuracy    <       0.00000067 Ry

     iteration # 25     ecut=    40.00 Ry     beta= 0.70
     Davidson diagonalization with overlap
     ethr =  2.60E-10,  avg # of iterations =  4.0

     negative rho (up, down):  2.488E-03 0.000E+00

     total cpu time spent up to now is       16.6 secs

     total energy              =    -469.60315721 Ry
     estimated scf accuracy    <       0.00000164 Ry

     iteration # 26     ecut=    40.00 Ry     beta= 0.70
     Davidson diagonalization with overlap
     ethr =  2.60E-10,  avg # of iterations =  1.3

     negative rho (up, down):  2.488E-03 0.000E+00

     total cpu time spent up to now is       17.1 secs

     total energy              =    -469.60315668 Ry
     estimated scf accuracy    <       0.00000131 Ry

     iteration # 27     ecut=    40.00 Ry     beta= 0.70
     Davidson diagonalization with overlap
     ethr =  2.60E-10,  avg # of iterations =  6.9

     negative rho (up, down):  2.488E-03 0.000E+00

     total cpu time spent up to now is       20.5 secs

     total energy              =    -469.60315699 Ry
     estimated scf accuracy    <       0.00000014 Ry

     iteration # 28     ecut=    40.00 Ry     beta= 0.70
     Davidson diagonalization with overlap
     ethr =  2.60E-10,  avg # of iterations =  1.9

     negative rho (up, down):  2.488E-03 0.000E+00

     total cpu time spent up to now is       21.1 secs

     total energy              =    -469.60315698 Ry
     estimated scf accuracy    <       0.00000004 Ry

     iteration # 29     ecut=    40.00 Ry     beta= 0.70
     Davidson diagonalization with overlap
     ethr =  1.12E-10,  avg # of iterations =  5.7

     negative rho (up, down):  2.488E-03 0.000E+00

     total cpu time spent up to now is       21.7 secs

     End of self-consistent calculation

          k = 0.0000 0.0000 0.0000 (  4881 PWs)   bands (ev):

   -58.0460 -58.0206 -34.4001 -34.2099 -34.0935 -34.0935 -34.0778 -34.0778
   -19.1697 -19.0890 -11.3395  -6.1451  -5.3087  -5.3087  -4.9533  -4.9533
    -4.7432  -1.4084  -0.2912  -0.2912   0.3558   0.3558   1.1596   1.2337

          k = 0.0000 0.1925 0.0000 (  4920 PWs)   bands (ev):

   -58.0301 -58.0076 -34.3646 -34.2568 -34.2006 -34.1549 -34.1223 -34.0977
   -19.0189 -18.9681 -11.1850  -5.9247  -5.4840  -5.3312  -5.1076  -4.8333
    -4.2712  -2.1901  -1.3238  -1.2665   0.4043   1.0472   1.3324   1.6197

          k = 0.0000 0.3849 0.0000 (  4944 PWs)   bands (ev):

   -57.9971 -57.9824 -34.4745 -34.4338 -34.2843 -34.1766 -34.1599 -34.1401
   -18.7656 -18.7568 -10.6193  -6.1326  -5.5130  -5.0004  -4.8148  -4.6547
    -4.5011  -3.3707  -2.0742  -1.8533   0.1832   1.3945   1.4491   2.1468

          k = 0.0000-0.5774 0.0000 (  4952 PWs)   bands (ev):

   -57.9793 -57.9709 -34.5884 -34.5454 -34.2347 -34.2029 -34.1644 -34.1618
   -18.6692 -18.6620 -10.0758  -6.6521  -5.7728  -4.7770  -4.7581  -4.5736
    -4.3238  -3.7931  -2.1421  -1.8146   0.0416   1.2861   1.8770   1.8969

          k = 0.1667 0.2887 0.0000 (  4904 PWs)   bands (ev):

   -58.0055 -57.9885 -34.3870 -34.3670 -34.3046 -34.1807 -34.1698 -34.1455
   -18.8214 -18.8028 -10.8122  -5.8756  -5.5286  -5.2414  -4.8231  -4.7247
    -4.1934  -3.1122  -2.4089  -1.8256   0.4905   1.3482   1.5802   1.8991

          k = 0.1667 0.4811 0.0000 (  4926 PWs)   bands (ev):

   -57.9794 -57.9709 -34.5243 -34.4937 -34.2670 -34.2378 -34.2222 -34.1592
   -18.6587 -18.6565 -10.1509  -6.0654  -5.7200  -5.1259  -4.7361  -4.5880
    -4.3502  -3.4196  -2.7357  -2.4539   0.5869   1.3484   1.5642   1.9616

          k = 0.3333 0.5774 0.0000 (  4902 PWs)   bands (ev):

   -57.9679 -57.9677 -34.4625 -34.4623 -34.3948 -34.3350 -34.1850 -34.1847
   -18.6052 -18.6052  -9.8855  -5.6356  -5.6217  -5.2030  -5.2029  -4.3588
    -4.3587  -3.4039  -3.0952  -3.0951   0.8632   1.2770   1.2771   2.0848

     the Fermi energy is    -0.1357 ev

!    total energy              =    -469.60315698 Ry
     total all-electron energy =     -3792.906855 Ry
     estimated scf accuracy    <          9.1E-09 Ry
     smearing contrib. (-TS)   =      -0.00055974 Ry
     internal energy E=F+TS    =    -469.60259724 Ry

     The total energy is F=E-TS. E is the sum of the following terms:
     one-electron contribution =   -2665.17118142 Ry
     hartree contribution      =    1335.56787110 Ry
     xc contribution           =     -56.58059652 Ry
     ewald contribution        =    1072.60095820 Ry
     one-center paw contrib.   =    -156.01964861 Ry

     convergence has been achieved in  29 iterations

     Writing all to output data dir ./tmp/ti2co2.save/ :
     XML data file, charge density, pseudopotentials, collected wavefunctions

     init_run     :      1.07s CPU      1.04s WALL (       1 calls)
     electrons    :     18.12s CPU     20.50s WALL (       1 calls)

     Called by init_run:
     wfcinit      :      0.14s CPU      0.14s WALL (       1 calls)
     potinit      :      0.34s CPU      0.33s WALL (       1 calls)
     hinit0       :      0.40s CPU      0.38s WALL (       1 calls)

     Called by electrons:
     c_bands      :     10.40s CPU     12.39s WALL (      29 calls)
     sum_band     :      2.91s CPU      3.21s WALL (      29 calls)
     v_of_rho     :      0.48s CPU      0.46s WALL (      30 calls)
     newd         :      1.93s CPU      2.19s WALL (      30 calls)
     PAW_pot      :      2.43s CPU      2.30s WALL (      30 calls)
     mix_rho      :      0.08s CPU      0.07s WALL (      29 calls)

     Called by c_bands:
     init_us_2    :      0.10s CPU      0.09s WALL (     413 calls)
     cegterg      :     10.13s CPU     12.14s WALL (     203 calls)

     Called by *egterg:
     cdiaghg      :      0.57s CPU      0.53s WALL (    1062 calls)
     h_psi        :      5.19s CPU      7.54s WALL (    1069 calls)
     s_psi        :      0.70s CPU      0.66s WALL (    1069 calls)
     g_psi        :      0.01s CPU      0.01s WALL (     859 calls)

     Called by h_psi:
     h_psi:calbec :      1.01s CPU      0.99s WALL (    1069 calls)
     vloc_psi     :      3.46s CPU      5.86s WALL (    1069 calls)
                                        0.00s GPU  (    1069 calls)
     add_vuspsi   :      0.69s CPU      0.67s WALL (    1069 calls)

     General routines
     calbec       :      1.33s CPU      1.31s WALL (    1272 calls)
     fft          :      0.59s CPU      0.55s WALL (     388 calls)
     ffts         :      0.24s CPU      0.22s WALL (      59 calls)
     fftw         :      3.75s CPU      6.15s WALL (   32188 calls)
     interpolate  :      0.26s CPU      0.24s WALL (      30 calls)

     Parallel routines

     PWSCF        :     19.35s CPU     21.74s WALL


   This run was terminated on:  15: 0:23  22Sep2026            

=------------------------------------------------------------------------------=
   JOB DONE.
=------------------------------------------------------------------------------=
