
     Program PWSCF v.7.5 starts on 22Sep2026 at 15:47:18 

     This program is part of the open-source Quantum ESPRESSO suite
     for quantum simulation of materials; please cite
         "P. Giannozzi et al., J. Phys.:Condens. Matter 21 395502 (2009);
         "P. Giannozzi et al., J. Phys.:Condens. Matter 29 465901 (2017);
         "P. Giannozzi et al., J. Chem. Phys. 152 154105 (2020);
          URL http://www.quantum-espresso.org", 
     in publications or presentations arising from this work. More details at
     http://www.quantum-espresso.org/quote

     Parallel version (MPI), running on     8 processors

     MPI processes distributed on     1 nodes
     6811 MiB available memory on the printing compute node when the environment starts

     Waiting for input...
     Reading input from standard input

     Current dimensions of program PWSCF are:
     Max number of different atomic species (ntypx) = 10
     Max number of k-points (npk) =  40000
     Max angular momentum in pseudopotentials (lmaxx) =  4

     R & G space division:  proc/nbgrp/npool/nimage =       8
     Subspace diagonalization in iterative solution of the eigenvalue problem:
     a serial algorithm will be used


     Parallelization info
     --------------------
     sticks:   dense  smooth     PW     G-vecs:    dense   smooth      PW
     Min          91      45     15                13919     4919     979
     Max          92      46     16                13932     4944    1008
     Sum         733     361    121               111423    39451    7907

     Using Slab Decomposition



     bravais-lattice index     =            0
     lattice parameter (alat)  =       5.7299  a.u.
     unit-cell volume          =    1151.2252 (a.u.)^3
     number of atoms/cell      =            5
     number of atomic types    =            3
     number of electrons       =        40.00
     number of Kohn-Sham states=           24
     kinetic-energy cutoff     =      40.0000  Ry
     charge density cutoff     =     320.0000  Ry
     scf convergence threshold =      1.0E-08
     mixing beta               =       0.7000
     number of iterations used =            8  plain     mixing
     Exchange-correlation= PBE
                           (   1   4   3   4   0   0   0)

     celldm(1)=   5.729914  celldm(2)=   0.000000  celldm(3)=   0.000000
     celldm(4)=   0.000000  celldm(5)=   0.000000  celldm(6)=   0.000000

     crystal axes: (cart. coord. in units of alat)
               a(1) = (   1.000000   0.000000   0.000000 )  
               a(2) = (  -0.500000   0.866025   0.000000 )  
               a(3) = (   0.000000   0.000000   7.066191 )  

     reciprocal axes: (cart. coord. in units 2 pi/alat)
               b(1) = (  1.000000  0.577350 -0.000000 )  
               b(2) = (  0.000000  1.154701  0.000000 )  
               b(3) = (  0.000000 -0.000000  0.141519 )  


     PseudoPot. # 1 for Ti read from file:
     ../pseudopotential/Ti.upf
     MD5 check sum: 0b3868d933a8ea9356727c02a1b807de
     Pseudo is Norm-conserving + core correction, Zval = 12.0
     Generated using ONCVPSP code by D. R. Hamann
     Using radial grid of 1586 points,  6 beta functions with: 
                l(1) =   0
                l(2) =   0
                l(3) =   1
                l(4) =   1
                l(5) =   2
                l(6) =   2

     PseudoPot. # 2 for C  read from file:
     ../pseudopotential/C.upf
     MD5 check sum: 34a24e64c0a39f27c6c36b90a16ac686
     Pseudo is Norm-conserving + core correction, Zval =  4.0
     Generated using ONCVPSP code by D. R. Hamann
     Using radial grid of 1248 points,  4 beta functions with: 
                l(1) =   0
                l(2) =   0
                l(3) =   1
                l(4) =   1

     PseudoPot. # 3 for O  read from file:
     ../pseudopotential/O.upf
     MD5 check sum: 3e3f909f7470e8921608ab6b1f57bbae
     Pseudo is Norm-conserving + core correction, Zval =  6.0
     Generated using ONCVPSP code by D. R. Hamann
     Using radial grid of  936 points,  5 beta functions with: 
                l(1) =   0
                l(2) =   0
                l(3) =   1
                l(4) =   1
                l(5) =   2

     atomic species   valence    mass     pseudopotential
     Ti               12.00    47.86700     Ti( 1.00)
     C                 4.00    12.01100     C ( 1.00)
     O                 6.00    15.99900     O ( 1.00)

     No symmetry found



   Cartesian axes

     site n.     atom                  positions (alat units)
         1        Ti     tau(   1) = (   0.0000000   0.5773480   0.7935739  )
         2        Ti     tau(   2) = (   0.5000000   0.2886740   1.6554160  )
         3        C      tau(   3) = (   0.0000000  -0.0000000   1.2245154  )
         4        O      tau(   4) = (   0.0000000   0.5773480   1.9548814  )
         5        O      tau(   5) = (   0.5000000   0.2886740   0.4940912  )

     number of k points=    36  Marzari-Vanderbilt smearing, width (Ry)=  0.0200
                       cart. coord. in units 2pi/alat
        k(    1) = (   0.0000000   0.0000000   0.0000000), wk =   0.0555556
        k(    2) = (   0.0000000   0.1924501   0.0000000), wk =   0.0555556
        k(    3) = (   0.0000000   0.3849002   0.0000000), wk =   0.0555556
        k(    4) = (   0.0000000  -0.5773503   0.0000000), wk =   0.0555556
        k(    5) = (   0.0000000  -0.3849002   0.0000000), wk =   0.0555556
        k(    6) = (   0.0000000  -0.1924501   0.0000000), wk =   0.0555556
        k(    7) = (   0.1666667   0.0962251   0.0000000), wk =   0.0555556
        k(    8) = (   0.1666667   0.2886752   0.0000000), wk =   0.0555556
        k(    9) = (   0.1666667   0.4811253   0.0000000), wk =   0.0555556
        k(   10) = (   0.1666667  -0.4811253   0.0000000), wk =   0.0555556
        k(   11) = (   0.1666667  -0.2886752   0.0000000), wk =   0.0555556
        k(   12) = (   0.1666667  -0.0962251   0.0000000), wk =   0.0555556
        k(   13) = (   0.3333333   0.1924501   0.0000000), wk =   0.0555556
        k(   14) = (   0.3333333   0.3849002   0.0000000), wk =   0.0555556
        k(   15) = (   0.3333333   0.5773503   0.0000000), wk =   0.0555556
        k(   16) = (   0.3333333  -0.3849002   0.0000000), wk =   0.0555556
        k(   17) = (   0.3333333  -0.1924501   0.0000000), wk =   0.0555556
        k(   18) = (   0.3333333   0.0000000   0.0000000), wk =   0.0555556
        k(   19) = (  -0.5000000  -0.2886752   0.0000000), wk =   0.0555556
        k(   20) = (  -0.5000000  -0.0962251   0.0000000), wk =   0.0555556
        k(   21) = (  -0.5000000   0.0962251   0.0000000), wk =   0.0555556
        k(   22) = (  -0.5000000  -0.8660255   0.0000000), wk =   0.0555556
        k(   23) = (  -0.5000000  -0.6735754   0.0000000), wk =   0.0555556
        k(   24) = (  -0.5000000  -0.4811253   0.0000000), wk =   0.0555556
        k(   25) = (  -0.3333333  -0.1924501   0.0000000), wk =   0.0555556
        k(   26) = (  -0.3333333  -0.0000000   0.0000000), wk =   0.0555556
        k(   27) = (  -0.3333333   0.1924501   0.0000000), wk =   0.0555556
        k(   28) = (  -0.3333333  -0.7698004   0.0000000), wk =   0.0555556
        k(   29) = (  -0.3333333  -0.5773503   0.0000000), wk =   0.0555556
        k(   30) = (  -0.3333333  -0.3849002   0.0000000), wk =   0.0555556
        k(   31) = (  -0.1666667  -0.0962251   0.0000000), wk =   0.0555556
        k(   32) = (  -0.1666667   0.0962251   0.0000000), wk =   0.0555556
        k(   33) = (  -0.1666667   0.2886752   0.0000000), wk =   0.0555556
        k(   34) = (  -0.1666667  -0.6735754   0.0000000), wk =   0.0555556
        k(   35) = (  -0.1666667  -0.4811253   0.0000000), wk =   0.0555556
        k(   36) = (  -0.1666667  -0.2886752   0.0000000), wk =   0.0555556

     Dense  grid:   111423 G-vectors     FFT dimensions: (  36,  36, 240)

     Smooth grid:    39451 G-vectors     FFT dimensions: (  24,  24, 180)

     Estimated max dynamical RAM per process >      23.55 MB

     Estimated total dynamical RAM >     188.41 MB

     Initial potential from superposition of free atoms

     starting charge      39.9968, renormalised to      40.0000

     negative rho (up, down):  7.370E-05 0.000E+00
     Starting wfcs are   32 randomized atomic wfcs

     total cpu time spent up to now is        1.4 secs

     Self-consistent Calculation

     iteration #  1     ecut=    40.00 Ry     beta= 0.70
     Davidson diagonalization with overlap
     ethr =  1.00E-02,  avg # of iterations =  2.0

     total cpu time spent up to now is        2.9 secs

     total energy              =    -314.16986949 Ry
     estimated scf accuracy    <       2.18466116 Ry

     iteration #  2     ecut=    40.00 Ry     beta= 0.70
     Davidson diagonalization with overlap
     ethr =  5.46E-03,  avg # of iterations =  6.2

     negative rho (up, down):  4.783E-04 0.000E+00

     total cpu time spent up to now is        7.8 secs

     total energy              =    -313.12250470 Ry
     estimated scf accuracy    <      11.56863726 Ry

     iteration #  3     ecut=    40.00 Ry     beta= 0.70
     Davidson diagonalization with overlap
     ethr =  5.46E-03,  avg # of iterations =  4.4

     negative rho (up, down):  5.217E-04 0.000E+00

     total cpu time spent up to now is        9.7 secs

     total energy              =    -315.24270515 Ry
     estimated scf accuracy    <       0.59405659 Ry

     iteration #  4     ecut=    40.00 Ry     beta= 0.70
     Davidson diagonalization with overlap
     ethr =  1.49E-03,  avg # of iterations =  4.8

     negative rho (up, down):  2.618E-04 0.000E+00

     total cpu time spent up to now is       11.3 secs

     WARNING: integrated charge=    40.00158359, expected=    40.00000000

     total energy              =    -315.31857832 Ry
     estimated scf accuracy    <       0.16746847 Ry

     iteration #  5     ecut=    40.00 Ry     beta= 0.70
     Davidson diagonalization with overlap
     ethr =  4.19E-04,  avg # of iterations =  1.5

     total cpu time spent up to now is       12.6 secs

     WARNING: integrated charge=    39.99891695, expected=    40.00000000

     total energy              =    -315.28822588 Ry
     estimated scf accuracy    <       0.08568033 Ry

     iteration #  6     ecut=    40.00 Ry     beta= 0.70
     Davidson diagonalization with overlap
     ethr =  2.14E-04,  avg # of iterations =  5.1

     total cpu time spent up to now is       14.4 secs

     WARNING: integrated charge=    39.99899480, expected=    40.00000000

     total energy              =    -315.31160113 Ry
     estimated scf accuracy    <       0.02354215 Ry

     iteration #  7     ecut=    40.00 Ry     beta= 0.70
     Davidson diagonalization with overlap
     ethr =  5.89E-05,  avg # of iterations =  3.3

     negative rho (up, down):  3.086E-08 0.000E+00

     total cpu time spent up to now is       15.8 secs

     WARNING: integrated charge=    39.99995772, expected=    40.00000000

     total energy              =    -315.31103278 Ry
     estimated scf accuracy    <       0.01235982 Ry

     iteration #  8     ecut=    40.00 Ry     beta= 0.70
     Davidson diagonalization with overlap
     c_bands:  1 eigenvalues not converged
     c_bands:  1 eigenvalues not converged
     c_bands:  1 eigenvalues not converged
     c_bands:  1 eigenvalues not converged
     c_bands:  1 eigenvalues not converged
     ethr =  3.09E-05,  avg # of iterations =  9.4

     total cpu time spent up to now is       17.7 secs

     WARNING: integrated charge=    39.99992883, expected=    40.00000000

     total energy              =    -315.31168321 Ry
     estimated scf accuracy    <       0.00600297 Ry

     iteration #  9     ecut=    40.00 Ry     beta= 0.70
     Davidson diagonalization with overlap
     ethr =  1.50E-05,  avg # of iterations =  3.0

     total cpu time spent up to now is       19.1 secs

     WARNING: integrated charge=    39.99992971, expected=    40.00000000

     total energy              =    -315.31182525 Ry
     estimated scf accuracy    <       0.00133620 Ry

     iteration # 10     ecut=    40.00 Ry     beta= 0.70
     Davidson diagonalization with overlap
     c_bands:  1 eigenvalues not converged
     ethr =  3.34E-06,  avg # of iterations =  8.9

     total cpu time spent up to now is       21.2 secs

     WARNING: integrated charge=    40.00001616, expected=    40.00000000

     total energy              =    -315.31211413 Ry
     estimated scf accuracy    <       0.00005385 Ry

     iteration # 11     ecut=    40.00 Ry     beta= 0.70
     Davidson diagonalization with overlap
     ethr =  1.35E-07,  avg # of iterations =  6.1

     total cpu time spent up to now is       23.5 secs

     WARNING: integrated charge=    40.00001192, expected=    40.00000000

     total energy              =    -315.31213296 Ry
     estimated scf accuracy    <       0.00009960 Ry

     iteration # 12     ecut=    40.00 Ry     beta= 0.70
     Davidson diagonalization with overlap
     ethr =  1.35E-07,  avg # of iterations =  4.1

     total cpu time spent up to now is       25.2 secs

     WARNING: integrated charge=    39.99999511, expected=    40.00000000

     total energy              =    -315.31214650 Ry
     estimated scf accuracy    <       0.00000583 Ry

     iteration # 13     ecut=    40.00 Ry     beta= 0.70
     Davidson diagonalization with overlap
     ethr =  1.46E-08,  avg # of iterations =  5.4

     total cpu time spent up to now is       27.3 secs

     total energy              =    -315.31214914 Ry
     estimated scf accuracy    <       0.00000180 Ry

     iteration # 14     ecut=    40.00 Ry     beta= 0.70
     Davidson diagonalization with overlap
     ethr =  4.51E-09,  avg # of iterations =  2.3

     total cpu time spent up to now is       28.7 secs

     total energy              =    -315.31214937 Ry
     estimated scf accuracy    <       0.00000010 Ry

     iteration # 15     ecut=    40.00 Ry     beta= 0.70
     Davidson diagonalization with overlap
     ethr =  2.43E-10,  avg # of iterations =  5.5

     total cpu time spent up to now is       30.9 secs

     total energy              =    -315.31214942 Ry
     estimated scf accuracy    <       0.00000006 Ry

     iteration # 16     ecut=    40.00 Ry     beta= 0.70
     Davidson diagonalization with overlap
     ethr =  1.47E-10,  avg # of iterations =  3.1

     total cpu time spent up to now is       32.5 secs

     End of self-consistent calculation

          k = 0.0000 0.0000 0.0000 (  4881 PWs)   bands (ev):

   -58.7643 -58.7596 -35.3812 -35.2026 -35.0923 -35.0923 -35.0755 -35.0755
   -19.5886 -19.5208 -11.4041  -6.1395  -5.2615  -5.2615  -4.8951  -4.8951
    -4.7217  -1.3549  -0.1573  -0.1573   0.8044   0.8044   1.5823   1.6492

          k = 0.0000 0.1925 0.0000 (  4920 PWs)   bands (ev):

   -58.7618 -58.7540 -35.3483 -35.2448 -35.1906 -35.1508 -35.1203 -35.0963
   -19.4536 -19.4106 -11.2347  -5.9276  -5.4708  -5.3197  -5.0613  -4.7942
    -4.2549  -2.0856  -1.1856  -1.1781   0.7592   1.4827   1.7334   2.0367

          k = 0.0000 0.3849 0.0000 (  4944 PWs)   bands (ev):

   -58.7334 -58.7299 -35.4443 -35.4065 -35.2744 -35.1704 -35.1580 -35.1363
   -19.2209 -19.2129 -10.6466  -6.1581  -5.5494  -5.0232  -4.7841  -4.6249
    -4.4897  -3.3081  -2.0091  -1.7570   0.4546   1.8480   1.8792   2.6483

          k = 0.0000-0.5774 0.0000 (  4952 PWs)   bands (ev):

   -58.7234 -58.7131 -35.5484 -35.5112 -35.2288 -35.1957 -35.1629 -35.1564
   -19.1303 -19.1249 -10.1018  -6.6660  -5.8161  -4.8389  -4.7428  -4.5487
    -4.3177  -3.7056  -2.1016  -1.7498   0.2794   1.6722   2.4006   2.4257

          k = 0.0000-0.3849 0.0000 (  4944 PWs)   bands (ev):

   -58.7334 -58.7299 -35.4443 -35.4065 -35.2744 -35.1704 -35.1580 -35.1363
   -19.2209 -19.2129 -10.6466  -6.1581  -5.5494  -5.0232  -4.7841  -4.6249
    -4.4897  -3.3081  -2.0091  -1.7570   0.4546   1.8480   1.8792   2.6483

          k = 0.0000-0.1925 0.0000 (  4920 PWs)   bands (ev):

   -58.7618 -58.7540 -35.3483 -35.2448 -35.1906 -35.1508 -35.1203 -35.0963
   -19.4536 -19.4106 -11.2347  -5.9276  -5.4708  -5.3197  -5.0613  -4.7942
    -4.2549  -2.0856  -1.1856  -1.1781   0.7592   1.4827   1.7334   2.0367

          k = 0.1667 0.0962 0.0000 (  4920 PWs)   bands (ev):

   -58.7618 -58.7540 -35.3483 -35.2448 -35.1906 -35.1508 -35.1203 -35.0963
   -19.4536 -19.4106 -11.2347  -5.9276  -5.4708  -5.3197  -5.0613  -4.7942
    -4.2549  -2.0856  -1.1856  -1.1781   0.7592   1.4827   1.7334   2.0367

          k = 0.1667 0.2887 0.0000 (  4904 PWs)   bands (ev):

   -58.7347 -58.7230 -35.3627 -35.3450 -35.2924 -35.1722 -35.1649 -35.1412
   -19.2714 -19.2546 -10.8401  -5.9011  -5.5481  -5.2222  -4.7705  -4.6963
    -4.1967  -3.0501  -2.2749  -1.7570   0.8844   1.8003   2.0577   2.3115

          k = 0.1667 0.4811 0.0000 (  4926 PWs)   bands (ev):

   -58.7137 -58.7074 -35.4894 -35.4621 -35.2535 -35.2302 -35.2120 -35.1573
   -19.1213 -19.1197 -10.1679  -6.0964  -5.7392  -5.1472  -4.7274  -4.5719
    -4.3606  -3.3415  -2.6434  -2.4189   0.9229   1.7906   2.0404   2.5109

          k = 0.1667-0.4811 0.0000 (  4926 PWs)   bands (ev):

   -58.7137 -58.7074 -35.4894 -35.4621 -35.2535 -35.2302 -35.2120 -35.1573
   -19.1213 -19.1197 -10.1679  -6.0964  -5.7392  -5.1472  -4.7274  -4.5719
    -4.3606  -3.3415  -2.6434  -2.4189   0.9229   1.7906   2.0404   2.5102

          k = 0.1667-0.2887 0.0000 (  4904 PWs)   bands (ev):

   -58.7347 -58.7230 -35.3627 -35.3450 -35.2924 -35.1722 -35.1649 -35.1412
   -19.2714 -19.2546 -10.8401  -5.9011  -5.5481  -5.2222  -4.7705  -4.6963
    -4.1967  -3.0501  -2.2749  -1.7570   0.8844   1.8002   2.0577   2.3115

          k = 0.1667-0.0962 0.0000 (  4920 PWs)   bands (ev):

   -58.7618 -58.7540 -35.3483 -35.2448 -35.1906 -35.1508 -35.1203 -35.0963
   -19.4536 -19.4106 -11.2347  -5.9276  -5.4708  -5.3197  -5.0613  -4.7942
    -4.2549  -2.0856  -1.1856  -1.1781   0.7592   1.4827   1.7334   2.0367

          k = 0.3333 0.1925 0.0000 (  4944 PWs)   bands (ev):

   -58.7334 -58.7299 -35.4443 -35.4066 -35.2744 -35.1704 -35.1580 -35.1363
   -19.2209 -19.2129 -10.6466  -6.1581  -5.5494  -5.0232  -4.7841  -4.6249
    -4.4897  -3.3081  -2.0091  -1.7570   0.4546   1.8480   1.8792   2.6941

          k = 0.3333 0.3849 0.0000 (  4926 PWs)   bands (ev):

   -58.7137 -58.7074 -35.4894 -35.4621 -35.2535 -35.2302 -35.2120 -35.1573
   -19.1213 -19.1197 -10.1679  -6.0964  -5.7392  -5.1472  -4.7274  -4.5719
    -4.3606  -3.3415  -2.6434  -2.4189   0.9229   1.7906   2.0404   2.5123

          k = 0.3333 0.5774 0.0000 (  4902 PWs)   bands (ev):

   -58.6961 -58.6958 -35.4321 -35.4318 -35.3696 -35.3151 -35.1821 -35.1818
   -19.0715 -19.0714  -9.8904  -5.6645  -5.6492  -5.2025  -5.2024  -4.3770
    -4.3769  -3.3320  -3.0122  -3.0121   1.2993   1.7428   1.7430   2.5905

          k = 0.3333-0.3849 0.0000 (  4926 PWs)   bands (ev):

   -58.7137 -58.7074 -35.4894 -35.4621 -35.2535 -35.2302 -35.2120 -35.1573
   -19.1213 -19.1197 -10.1679  -6.0964  -5.7392  -5.1472  -4.7274  -4.5719
    -4.3606  -3.3415  -2.6434  -2.4189   0.9229   1.7906   2.0404   2.5118

          k = 0.3333-0.1925 0.0000 (  4944 PWs)   bands (ev):

   -58.7334 -58.7299 -35.4443 -35.4066 -35.2744 -35.1704 -35.1580 -35.1363
   -19.2209 -19.2129 -10.6466  -6.1581  -5.5494  -5.0232  -4.7841  -4.6249
    -4.4897  -3.3081  -2.0091  -1.7570   0.4546   1.8480   1.8792   2.6483

          k = 0.3333 0.0000 0.0000 (  4904 PWs)   bands (ev):

   -58.7347 -58.7230 -35.3627 -35.3450 -35.2924 -35.1722 -35.1649 -35.1412
   -19.2714 -19.2546 -10.8401  -5.9011  -5.5481  -5.2222  -4.7705  -4.6963
    -4.1967  -3.0501  -2.2749  -1.7570   0.8844   1.8002   2.0577   2.3114

          k =-0.5000-0.2887 0.0000 (  4952 PWs)   bands (ev):

   -58.7234 -58.7131 -35.5484 -35.5112 -35.2288 -35.1957 -35.1629 -35.1564
   -19.1303 -19.1249 -10.1018  -6.6660  -5.8161  -4.8389  -4.7427  -4.5487
    -4.3177  -3.7056  -2.1016  -1.7498   0.2794   1.6722   2.4006   2.4256

          k =-0.5000-0.0962 0.0000 (  4926 PWs)   bands (ev):

   -58.7137 -58.7074 -35.4894 -35.4621 -35.2535 -35.2302 -35.2120 -35.1573
   -19.1213 -19.1197 -10.1679  -6.0964  -5.7392  -5.1472  -4.7274  -4.5719
    -4.3606  -3.3415  -2.6434  -2.4189   0.9229   1.7906   2.0404   2.5111

          k =-0.5000 0.0962 0.0000 (  4926 PWs)   bands (ev):

   -58.7137 -58.7074 -35.4894 -35.4621 -35.2535 -35.2302 -35.2120 -35.1573
   -19.1213 -19.1197 -10.1679  -6.0964  -5.7392  -5.1472  -4.7274  -4.5719
    -4.3606  -3.3415  -2.6434  -2.4189   0.9229   1.7906   2.0404   2.5125

          k =-0.5000-0.8660 0.0000 (  4952 PWs)   bands (ev):

   -58.7234 -58.7131 -35.5484 -35.5112 -35.2288 -35.1957 -35.1629 -35.1564
   -19.1303 -19.1249 -10.1018  -6.6660  -5.8161  -4.8389  -4.7427  -4.5487
    -4.3177  -3.7056  -2.1016  -1.7498   0.2794   1.6722   2.4007   2.4258

          k =-0.5000-0.6736 0.0000 (  4926 PWs)   bands (ev):

   -58.7137 -58.7074 -35.4894 -35.4621 -35.2535 -35.2302 -35.2120 -35.1573
   -19.1213 -19.1197 -10.1679  -6.0964  -5.7392  -5.1472  -4.7274  -4.5719
    -4.3606  -3.3415  -2.6434  -2.4189   0.9229   1.7906   2.0404   2.5107

          k =-0.5000-0.4811 0.0000 (  4926 PWs)   bands (ev):

   -58.7137 -58.7074 -35.4894 -35.4621 -35.2535 -35.2302 -35.2120 -35.1573
   -19.1213 -19.1197 -10.1679  -6.0964  -5.7392  -5.1472  -4.7274  -4.5719
    -4.3606  -3.3415  -2.6434  -2.4189   0.9229   1.7906   2.0404   2.5123

          k =-0.3333-0.1925 0.0000 (  4944 PWs)   bands (ev):

   -58.7334 -58.7299 -35.4443 -35.4066 -35.2744 -35.1704 -35.1580 -35.1363
   -19.2209 -19.2129 -10.6466  -6.1581  -5.5494  -5.0232  -4.7841  -4.6249
    -4.4897  -3.3081  -2.0091  -1.7570   0.4546   1.8480   1.8792   2.6486

          k =-0.3333-0.0000 0.0000 (  4904 PWs)   bands (ev):

   -58.7347 -58.7230 -35.3627 -35.3450 -35.2924 -35.1722 -35.1649 -35.1412
   -19.2714 -19.2546 -10.8401  -5.9011  -5.5481  -5.2222  -4.7705  -4.6963
    -4.1967  -3.0501  -2.2749  -1.7570   0.8844   1.8003   2.0577   2.3113

          k =-0.3333 0.1925 0.0000 (  4944 PWs)   bands (ev):

   -58.7334 -58.7299 -35.4443 -35.4066 -35.2744 -35.1704 -35.1580 -35.1363
   -19.2209 -19.2129 -10.6466  -6.1581  -5.5494  -5.0232  -4.7841  -4.6249
    -4.4897  -3.3081  -2.0091  -1.7570   0.4546   1.8480   1.8792   2.6483

          k =-0.3333-0.7698 0.0000 (  4926 PWs)   bands (ev):

   -58.7137 -58.7074 -35.4894 -35.4621 -35.2535 -35.2302 -35.2120 -35.1573
   -19.1213 -19.1197 -10.1679  -6.0964  -5.7392  -5.1472  -4.7274  -4.5719
    -4.3606  -3.3415  -2.6434  -2.4189   0.9229   1.7906   2.0404   2.5108

          k =-0.3333-0.5774 0.0000 (  4902 PWs)   bands (ev):

   -58.6961 -58.6958 -35.4321 -35.4318 -35.3696 -35.3151 -35.1821 -35.1818
   -19.0715 -19.0714  -9.8904  -5.6645  -5.6492  -5.2025  -5.2024  -4.3770
    -4.3769  -3.3320  -3.0122  -3.0121   1.2993   1.7428   1.7430   2.5905

          k =-0.3333-0.3849 0.0000 (  4926 PWs)   bands (ev):

   -58.7137 -58.7074 -35.4894 -35.4621 -35.2535 -35.2302 -35.2120 -35.1573
   -19.1213 -19.1197 -10.1679  -6.0964  -5.7392  -5.1472  -4.7274  -4.5719
    -4.3606  -3.3415  -2.6434  -2.4189   0.9229   1.7906   2.0404   2.5110

          k =-0.1667-0.0962 0.0000 (  4920 PWs)   bands (ev):

   -58.7618 -58.7540 -35.3483 -35.2448 -35.1906 -35.1508 -35.1203 -35.0963
   -19.4536 -19.4106 -11.2347  -5.9276  -5.4708  -5.3197  -5.0613  -4.7942
    -4.2549  -2.0856  -1.1856  -1.1781   0.7592   1.4827   1.7334   2.0367

          k =-0.1667 0.0962 0.0000 (  4920 PWs)   bands (ev):

   -58.7618 -58.7540 -35.3483 -35.2448 -35.1906 -35.1508 -35.1203 -35.0963
   -19.4536 -19.4106 -11.2347  -5.9276  -5.4708  -5.3197  -5.0613  -4.7942
    -4.2549  -2.0856  -1.1856  -1.1781   0.7592   1.4827   1.7334   2.0367

          k =-0.1667 0.2887 0.0000 (  4904 PWs)   bands (ev):

   -58.7347 -58.7230 -35.3627 -35.3450 -35.2924 -35.1722 -35.1649 -35.1412
   -19.2714 -19.2546 -10.8401  -5.9011  -5.5481  -5.2222  -4.7705  -4.6963
    -4.1967  -3.0501  -2.2749  -1.7570   0.8844   1.8003   2.0577   2.3119

          k =-0.1667-0.6736 0.0000 (  4926 PWs)   bands (ev):

   -58.7137 -58.7074 -35.4894 -35.4621 -35.2535 -35.2302 -35.2120 -35.1573
   -19.1213 -19.1197 -10.1679  -6.0964  -5.7392  -5.1472  -4.7274  -4.5719
    -4.3606  -3.3415  -2.6434  -2.4189   0.9229   1.7906   2.0404   2.5133

          k =-0.1667-0.4811 0.0000 (  4926 PWs)   bands (ev):

   -58.7137 -58.7074 -35.4894 -35.4621 -35.2535 -35.2302 -35.2120 -35.1573
   -19.1213 -19.1197 -10.1679  -6.0964  -5.7392  -5.1472  -4.7274  -4.5719
    -4.3606  -3.3415  -2.6434  -2.4189   0.9229   1.7906   2.0404   2.5111

          k =-0.1667-0.2887 0.0000 (  4904 PWs)   bands (ev):

   -58.7347 -58.7230 -35.3627 -35.3450 -35.2924 -35.1722 -35.1649 -35.1412
   -19.2714 -19.2546 -10.8401  -5.9011  -5.5481  -5.2222  -4.7705  -4.6963
    -4.1967  -3.0501  -2.2749  -1.7570   0.8844   1.8003   2.0577   2.3114

     the Fermi energy is     0.0445 ev

!    total energy              =    -315.31214944 Ry
     estimated scf accuracy    <          2.4E-09 Ry
     smearing contrib. (-TS)   =      -0.00019073 Ry
     internal energy E=F+TS    =    -315.31195870 Ry

     The total energy is F=E-TS. E is the sum of the following terms:
     one-electron contribution =   -2665.56477672 Ry
     hartree contribution      =    1333.18698774 Ry
     xc contribution           =     -55.53512793 Ry
     ewald contribution        =    1072.60095820 Ry

     convergence has been achieved in  16 iterations

     Writing all to output data dir ./tmp/ti2co2_eps.save/ :
     XML data file, charge density, pseudopotentials, collected wavefunctions

     init_run     :      1.31s CPU      1.28s WALL (       1 calls)
     electrons    :     29.76s CPU     31.14s WALL (       1 calls)

     Called by init_run:
     wfcinit      :      0.65s CPU      0.65s WALL (       1 calls)
     potinit      :      0.26s CPU      0.25s WALL (       1 calls)
     hinit0       :      0.37s CPU      0.36s WALL (       1 calls)

     Called by electrons:
     c_bands      :     27.50s CPU     28.85s WALL (      16 calls)
     sum_band     :      1.92s CPU      1.93s WALL (      16 calls)
     v_of_rho     :      0.29s CPU      0.30s WALL (      17 calls)
     mix_rho      :      0.04s CPU      0.04s WALL (      16 calls)

     Called by c_bands:
     init_us_2    :      0.30s CPU      0.30s WALL (    1188 calls)
     cegterg      :     26.68s CPU     28.08s WALL (     576 calls)

     Called by *egterg:
     cdiaghg      :      1.89s CPU      4.19s WALL (    3280 calls)
     h_psi        :     16.40s CPU     16.04s WALL (    3316 calls)
     g_psi        :      0.04s CPU      0.04s WALL (    2704 calls)

     Called by h_psi:
     h_psi:calbec :      3.48s CPU      3.44s WALL (    3316 calls)
     vloc_psi     :     10.23s CPU     10.00s WALL (    3316 calls)
                                        0.00s GPU  (    3316 calls)
     add_vuspsi   :      2.62s CPU      2.53s WALL (    3316 calls)

     General routines
     calbec       :      3.47s CPU      3.44s WALL (    3316 calls)
     fft          :      0.47s CPU      0.45s WALL (     202 calls)
     ffts         :      0.24s CPU      0.23s WALL (      33 calls)
     fftw         :     11.04s CPU     10.84s WALL (   93104 calls)
     interpolate  :      0.25s CPU      0.24s WALL (      17 calls)

     Parallel routines

     PWSCF        :     31.18s CPU     32.58s WALL


   This run was terminated on:  15:47:51  22Sep2026            

=------------------------------------------------------------------------------=
   JOB DONE.
=------------------------------------------------------------------------------=
