
     Program PWSCF v.7.5 starts on 22Sep2026 at 14:39:26 

     This program is part of the open-source Quantum ESPRESSO suite
     for quantum simulation of materials; please cite
         "P. Giannozzi et al., J. Phys.:Condens. Matter 21 395502 (2009);
         "P. Giannozzi et al., J. Phys.:Condens. Matter 29 465901 (2017);
         "P. Giannozzi et al., J. Chem. Phys. 152 154105 (2020);
          URL http://www.quantum-espresso.org", 
     in publications or presentations arising from this work. More details at
     http://www.quantum-espresso.org/quote

     Parallel version (MPI), running on     8 processors

     MPI processes distributed on     1 nodes
     6252 MiB available memory on the printing compute node when the environment starts

     Waiting for input...
     Reading input from standard input
Warning: card &IONS ignored

     Current dimensions of program PWSCF are:
     Max number of different atomic species (ntypx) = 10
     Max number of k-points (npk) =  40000
     Max angular momentum in pseudopotentials (lmaxx) =  4
     file Ti.pbe-spn-kjpaw_psl.1.0.0.UPF: wavefunction(s)  3S 3P 3D renormalized
     file C.pbe-n-kjpaw_psl.1.0.0.UPF: wavefunction(s)  2S 2P renormalized
     file O.pbe-n-kjpaw_psl.1.0.0.UPF: wavefunction(s)  2S 2P renormalized
     file H.pbe-kjpaw_psl.1.0.0.UPF: wavefunction(s)  1S renormalized

     Atomic positions and unit cell read from directory:
     ./tmp/ti2coh2.save/


     R & G space division:  proc/nbgrp/npool/nimage =       8
     Subspace diagonalization in iterative solution of the eigenvalue problem:
     a serial algorithm will be used


     Parallelization info
     --------------------
     sticks:   dense  smooth     PW     G-vecs:    dense   smooth      PW
     Min          93      45     14                15621     5515     958
     Max          94      46     16                15636     5536     969
     Sum         745     367    121               125043    44215    7697

     Using Slab Decomposition



     bravais-lattice index     =            0
     lattice parameter (alat)  =       5.7603  a.u.
     unit-cell volume          =    1291.6657 (a.u.)^3
     number of atoms/cell      =            7
     number of atomic types    =            4
     number of electrons       =        42.00
     number of Kohn-Sham states=           25
     kinetic-energy cutoff     =      40.0000  Ry
     charge density cutoff     =     320.0000  Ry
     Exchange-correlation= SLA  PW   PBX  PBC
                           (   1   4   3   4   0   0   0)

     celldm(1)=   5.760320  celldm(2)=   0.000000  celldm(3)=   0.000000
     celldm(4)=   0.000000  celldm(5)=   0.000000  celldm(6)=   0.000000

     crystal axes: (cart. coord. in units of alat)
               a(1) = (   1.000000   0.000000   0.000000 )  
               a(2) = (  -0.500002   0.866027   0.000000 )  
               a(3) = (   0.000000   0.000000   7.803309 )  

     reciprocal axes: (cart. coord. in units 2 pi/alat)
               b(1) = (  1.000000  0.577351 -0.000000 )  
               b(2) = (  0.000000  1.154698  0.000000 )  
               b(3) = (  0.000000 -0.000000  0.128151 )  


     PseudoPot. # 1 for Ti read from file:
     ../pseudopotential/Ti.pbe-spn-kjpaw_psl.1.0.0.UPF
     MD5 check sum: 01f69b0d8ba4438b2e03ac6ea4af1c0b
     Pseudo is Projector augmented-wave + core cor, Zval = 12.0
     Generated using &quot;atomic&quot; code by A. Dal Corso  v.6.2.2
     Shape of augmentation charge: PSQ
     Using radial grid of 1177 points,  6 beta functions with: 
                l(1) =   0
                l(2) =   0
                l(3) =   1
                l(4) =   1
                l(5) =   2
                l(6) =   2
     Q(r) pseudized with 0 coefficients 


     PseudoPot. # 2 for C  read from file:
     ../pseudopotential/C.pbe-n-kjpaw_psl.1.0.0.UPF
     MD5 check sum: 5f16ad9a65e90284d1d834d4ab3b0f7d
     Pseudo is Projector augmented-wave + core cor, Zval =  4.0
     Generated using &quot;atomic&quot; code by A. Dal Corso  v.6.3
     Shape of augmentation charge: PSQ
     Using radial grid of 1073 points,  4 beta functions with: 
                l(1) =   0
                l(2) =   0
                l(3) =   1
                l(4) =   1
     Q(r) pseudized with 0 coefficients 


     PseudoPot. # 3 for O  read from file:
     ../pseudopotential/O.pbe-n-kjpaw_psl.1.0.0.UPF
     MD5 check sum: e99d9cef9b487d1ca56f5b95ecd0fd7a
     Pseudo is Projector augmented-wave + core cor, Zval =  6.0
     Generated using &quot;atomic&quot; code by A. Dal Corso  v.6.3
     Shape of augmentation charge: PSQ
     Using radial grid of 1095 points,  4 beta functions with: 
                l(1) =   0
                l(2) =   0
                l(3) =   1
                l(4) =   1
     Q(r) pseudized with 0 coefficients 


     PseudoPot. # 4 for H  read from file:
     ../pseudopotential/H.pbe-kjpaw_psl.1.0.0.UPF
     MD5 check sum: d81a744832360e4a8af0b0b5b123bc2a
     Pseudo is Projector augmented-wave, Zval =  1.0
     Generated using &quot;atomic&quot; code by A. Dal Corso  v.6.3MaX
     Shape of augmentation charge: PSQ
     Using radial grid of  929 points,  2 beta functions with: 
                l(1) =   0
                l(2) =   0
     Q(r) pseudized with 0 coefficients 


     atomic species   valence    mass     pseudopotential
     Ti               12.00    47.86700     Ti( 1.00)
     C                 4.00    12.01100     C ( 1.00)
     O                 6.00    15.99900     O ( 1.00)
     H                 1.00     1.00800     H ( 1.00)

     No symmetry found



   Cartesian axes

     site n.     atom                  positions (alat units)
         1        Ti     tau(   1) = (  -0.1033350   0.5779378   1.0249980  )
         2        Ti     tau(   2) = (   0.3973285   0.2892394   1.7843821  )
         3        C      tau(   3) = (   0.8969638   0.0006040   1.4046691  )
         4        O      tau(   4) = (  -0.1027867   0.5780304   2.2008896  )
         5        O      tau(   5) = (   0.3968948   0.2897217   0.6086130  )
         6        H      tau(   6) = (   0.3970262   0.2932940   0.2887049  )
         7        H      tau(   7) = (  -0.1042237   0.5779512   2.5208202  )

     number of k points=    61  Marzari-Vanderbilt smearing, width (Ry)=  0.0200
                       cart. coord. in units 2pi/alat
        k(    1) = (   0.0000000   0.0000000   0.0000000), wk =   0.0327869
        k(    2) = (  -0.0166667   0.0288674   0.0000000), wk =   0.0327869
        k(    3) = (  -0.0333333   0.0577348   0.0000000), wk =   0.0327869
        k(    4) = (  -0.0500000   0.0866023   0.0000000), wk =   0.0327869
        k(    5) = (  -0.0666667   0.1154697   0.0000000), wk =   0.0327869
        k(    6) = (  -0.0833333   0.1443371   0.0000000), wk =   0.0327869
        k(    7) = (  -0.1000000   0.1732045   0.0000000), wk =   0.0327869
        k(    8) = (  -0.1166667   0.2020720   0.0000000), wk =   0.0327869
        k(    9) = (  -0.1333333   0.2309394   0.0000000), wk =   0.0327869
        k(   10) = (  -0.1500000   0.2598068   0.0000000), wk =   0.0327869
        k(   11) = (  -0.1666667   0.2886742   0.0000000), wk =   0.0327869
        k(   12) = (  -0.1833333   0.3175417   0.0000000), wk =   0.0327869
        k(   13) = (  -0.2000000   0.3464091   0.0000000), wk =   0.0327869
        k(   14) = (  -0.2166667   0.3752765   0.0000000), wk =   0.0327869
        k(   15) = (  -0.2333333   0.4041439   0.0000000), wk =   0.0327869
        k(   16) = (  -0.2500000   0.4330113   0.0000000), wk =   0.0327869
        k(   17) = (  -0.2666667   0.4618788   0.0000000), wk =   0.0327869
        k(   18) = (  -0.2833333   0.4907462   0.0000000), wk =   0.0327869
        k(   19) = (  -0.3000000   0.5196136   0.0000000), wk =   0.0327869
        k(   20) = (  -0.3166667   0.5484810   0.0000000), wk =   0.0327869
        k(   21) = (  -0.3333333   0.5773485   0.0000000), wk =   0.0327869
        k(   22) = (  -0.3000000   0.5773485   0.0000000), wk =   0.0327869
        k(   23) = (  -0.2666667   0.5773486   0.0000000), wk =   0.0327869
        k(   24) = (  -0.2333333   0.5773486   0.0000000), wk =   0.0327869
        k(   25) = (  -0.2000000   0.5773487   0.0000000), wk =   0.0327869
        k(   26) = (  -0.1666667   0.5773488   0.0000000), wk =   0.0327869
        k(   27) = (  -0.1333333   0.5773488   0.0000000), wk =   0.0327869
        k(   28) = (  -0.1000000   0.5773489   0.0000000), wk =   0.0327869
        k(   29) = (  -0.0666667   0.5773490   0.0000000), wk =   0.0327869
        k(   30) = (  -0.0333333   0.5773490   0.0000000), wk =   0.0327869
        k(   31) = (   0.0000000   0.5773491   0.0000000), wk =   0.0327869
        k(   32) = (   0.0333333   0.5773492   0.0000000), wk =   0.0327869
        k(   33) = (   0.0666667   0.5773492   0.0000000), wk =   0.0327869
        k(   34) = (   0.1000000   0.5773493   0.0000000), wk =   0.0327869
        k(   35) = (   0.1333333   0.5773493   0.0000000), wk =   0.0327869
        k(   36) = (   0.1666667   0.5773494   0.0000000), wk =   0.0327869
        k(   37) = (   0.2000000   0.5773495   0.0000000), wk =   0.0327869
        k(   38) = (   0.2333333   0.5773495   0.0000000), wk =   0.0327869
        k(   39) = (   0.2666667   0.5773496   0.0000000), wk =   0.0327869
        k(   40) = (   0.3000000   0.5773497   0.0000000), wk =   0.0327869
        k(   41) = (   0.3333333   0.5773497   0.0000000), wk =   0.0327869
        k(   42) = (   0.3166667   0.5484822   0.0000000), wk =   0.0327869
        k(   43) = (   0.3000000   0.5196148   0.0000000), wk =   0.0327869
        k(   44) = (   0.2833333   0.4907473   0.0000000), wk =   0.0327869
        k(   45) = (   0.2666667   0.4618798   0.0000000), wk =   0.0327869
        k(   46) = (   0.2500000   0.4330123   0.0000000), wk =   0.0327869
        k(   47) = (   0.2333333   0.4041448   0.0000000), wk =   0.0327869
        k(   48) = (   0.2166667   0.3752773   0.0000000), wk =   0.0327869
        k(   49) = (   0.2000000   0.3464098   0.0000000), wk =   0.0327869
        k(   50) = (   0.1833333   0.3175423   0.0000000), wk =   0.0327869
        k(   51) = (   0.1666667   0.2886749   0.0000000), wk =   0.0327869
        k(   52) = (   0.1500000   0.2598074   0.0000000), wk =   0.0327869
        k(   53) = (   0.1333333   0.2309399   0.0000000), wk =   0.0327869
        k(   54) = (   0.1166667   0.2020724   0.0000000), wk =   0.0327869
        k(   55) = (   0.1000000   0.1732049   0.0000000), wk =   0.0327869
        k(   56) = (   0.0833333   0.1443374   0.0000000), wk =   0.0327869
        k(   57) = (   0.0666667   0.1154699   0.0000000), wk =   0.0327869
        k(   58) = (   0.0500000   0.0866025   0.0000000), wk =   0.0327869
        k(   59) = (   0.0333333   0.0577350   0.0000000), wk =   0.0327869
        k(   60) = (   0.0166667   0.0288675   0.0000000), wk =   0.0327869
        k(   61) = (   0.0000000   0.0000000   0.0000000), wk =   0.0327869

     Dense  grid:   125043 G-vectors     FFT dimensions: (  36,  36, 256)

     Smooth grid:    44215 G-vectors     FFT dimensions: (  24,  24, 192)

     Estimated max dynamical RAM per process >      57.86 MB

     Estimated total dynamical RAM >     462.88 MB

     Check: negative core charge=   -0.000005

     The potential is recalculated from file :
     ./tmp/ti2coh2.save/charge-density


     negative rho (up, down):  8.113E-04 0.000E+00
     Starting wfcs are   34 randomized atomic wfcs
     Checking if some PAW data can be deallocated... 

     Band Structure Calculation
     Davidson diagonalization with overlap
     c_bands:  1 eigenvalues not converged
     c_bands:  1 eigenvalues not converged
     c_bands:  1 eigenvalues not converged
     c_bands:  1 eigenvalues not converged
     c_bands:  1 eigenvalues not converged
     c_bands:  1 eigenvalues not converged
     c_bands:  1 eigenvalues not converged

     ethr =  2.38E-11,  avg # of iterations = 93.8

     total cpu time spent up to now is       63.5 secs

     End of band structure calculation

          k = 0.0000 0.0000 0.0000 (  5509 PWs)   bands (ev):

   -55.0613 -54.9943 -31.5744 -31.2119 -31.1250 -31.1243 -31.0789 -31.0787
   -19.3380 -19.3129  -9.5748  -7.4902  -6.4906  -2.6845  -2.6834  -2.3827
    -2.3812  -1.7092   0.3562   0.3576   2.1430   2.3676   2.6107   2.6119
     2.6539

          k =-0.0167 0.0289 0.0000 (  5501 PWs)   bands (ev):

   -55.0608 -54.9939 -31.5732 -31.2134 -31.1265 -31.1259 -31.0820 -31.0791
   -19.3348 -19.3100  -9.5630  -7.4833  -6.4979  -2.6878  -2.6826  -2.4229
    -2.3849  -1.6791   0.3091   0.3439   2.1564   2.3776   2.6025   2.6234
     2.6781

          k =-0.0333 0.0577 0.0000 (  5489 PWs)   bands (ev):

   -55.0591 -54.9930 -31.5696 -31.2180 -31.1319 -31.1298 -31.0911 -31.0803
   -19.3252 -19.3015  -9.5278  -7.4632  -6.5189  -2.7005  -2.6792  -2.5281
    -2.3921  -1.6067   0.1766   0.3024   2.1949   2.4057   2.5792   2.6315
     2.7713

          k =-0.0500 0.0866 0.0000 (  5499 PWs)   bands (ev):

   -55.0565 -54.9916 -31.5638 -31.2268 -31.1390 -31.1372 -31.1045 -31.0829
   -19.3096 -19.2876  -9.4700  -7.4315  -6.5524  -2.7239  -2.7059  -2.6373
    -2.4070  -1.5182  -0.0163   0.2338   2.2547   2.4330   2.5664   2.6389
     2.9147

          k =-0.0667 0.1155 0.0000 (  5511 PWs)   bands (ev):

   -55.0529 -54.9896 -31.5560 -31.2407 -31.1511 -31.1459 -31.1187 -31.0869
   -19.2886 -19.2688  -9.3909  -7.3891  -6.5960  -2.8500  -2.7590  -2.6472
    -2.4297  -1.4285  -0.2427   0.1410   2.3265   2.4111   2.6216   2.6582
     3.0873

          k =-0.0833 0.1443 0.0000 (  5497 PWs)   bands (ev):

   -55.0483 -54.9872 -31.5466 -31.2601 -31.1730 -31.1515 -31.1309 -31.0925
   -19.2628 -19.2456  -9.2922  -7.3383  -6.6462  -3.0164  -2.8124  -2.6416
    -2.4576  -1.3438  -0.4824   0.0303   2.3559   2.3951   2.7111   2.7398
     3.2776

          k =-0.1000 0.1732 0.0000 (  5497 PWs)   bands (ev):

   -55.0431 -54.9845 -31.5359 -31.2841 -31.2008 -31.1558 -31.1419 -31.0997
   -19.2333 -19.2188  -9.1762  -7.2821  -6.6998  -3.1826  -2.8908  -2.6396
    -2.4878  -1.2678  -0.7216  -0.0932   2.2949   2.4401   2.8135   2.8992
     3.4752

          k =-0.1167 0.2021 0.0000 (  5512 PWs)   bands (ev):

   -55.0372 -54.9815 -31.5247 -31.3112 -31.2313 -31.1594 -31.1531 -31.1082
   -19.2010 -19.1893  -9.0458  -7.2229  -6.7534  -3.3434  -2.9998  -2.6457
    -2.5165  -1.2006  -0.9523  -0.2227   2.2400   2.4686   2.9632   3.0955
     3.6699

          k =-0.1333 0.2309 0.0000 (  5496 PWs)   bands (ev):

   -55.0309 -54.9785 -31.5138 -31.3397 -31.2620 -31.1652 -31.1631 -31.1176
   -19.1668 -19.1578  -8.9040  -7.1630  -6.8032  -3.4928  -3.1346  -2.6616
    -2.5432  -1.1671  -1.1424  -0.3522   2.2029   2.4917   3.1469   3.3271
     3.8522

          k =-0.1500 0.2598 0.0000 (  5480 PWs)   bands (ev):

   -55.0243 -54.9755 -31.5043 -31.3681 -31.2905 -31.1783 -31.1679 -31.1275
   -19.1319 -19.1254  -8.7547  -7.1053  -6.8467  -3.6280  -3.2880  -2.6900
    -2.5732  -1.3626  -1.0935  -0.4783   2.1885   2.5174   3.3498   3.5920
     4.0081

          k =-0.1667 0.2887 0.0000 (  5518 PWs)   bands (ev):

   -55.0175 -54.9727 -31.4976 -31.3952 -31.3145 -31.1923 -31.1750 -31.1370
   -19.0974 -19.0931  -8.6023  -7.0520  -6.8820  -3.7482  -3.4510  -2.7312
    -2.6141  -1.5352  -1.0552  -0.5996   2.2002   2.5470   3.5538   3.8872
     4.1355

          k =-0.1833 0.3175 0.0000 (  5526 PWs)   bands (ev):

   -55.0108 -54.9701 -31.4951 -31.4195 -31.3322 -31.2068 -31.1850 -31.1453
   -19.0641 -19.0615  -8.4513  -7.0034  -6.9063  -3.8503  -3.6111  -2.7840
    -2.6715  -1.6785  -1.0294  -0.7110   2.2427   2.5854   3.7376   4.2095
     4.2621

          k =-0.2000 0.3464 0.0000 (  5520 PWs)   bands (ev):

   -55.0042 -54.9679 -31.4969 -31.4402 -31.3432 -31.2209 -31.1980 -31.1526
   -19.0330 -19.0315  -8.3069  -6.9612  -6.9183  -3.9330  -3.7598  -2.8471
    -2.7502  -1.7875  -1.0287  -0.8001   2.3164   2.6327   3.8813   4.3929
     4.5333

          k =-0.2167 0.3753 0.0000 (  5512 PWs)   bands (ev):

   -54.9978 -54.9661 -31.5016 -31.4565 -31.3496 -31.2334 -31.2133 -31.1594
   -19.0049 -19.0036  -8.1742  -6.9241  -6.9178  -3.9960  -3.8876  -2.9198
    -2.8530  -1.8613  -1.0767  -0.8442   2.4165   2.6880   3.9852   4.4993
     4.6299

          k =-0.2333 0.4041 0.0000 (  5510 PWs)   bands (ev):

   -54.9920 -54.9648 -31.5065 -31.4681 -31.3552 -31.2427 -31.2299 -31.1664
   -18.9803 -18.9788  -8.0578  -6.9063  -6.8932  -4.0380  -3.9880  -3.0002
    -2.9747  -1.9035  -1.1678  -0.8485   2.5409   2.7528   4.0665   4.5481
     4.6381

          k =-0.2500 0.4330 0.0000 (  5528 PWs)   bands (ev):

   -54.9866 -54.9641 -31.5093 -31.4746 -31.3637 -31.2472 -31.2469 -31.1738
   -18.9594 -18.9576  -7.9608  -6.8873  -6.8685  -4.0598  -4.0552  -3.1064
    -3.0880  -1.9199  -1.2758  -0.8396   2.6866   2.8259   4.1364   4.5276
     4.6374

          k =-0.2667 0.4619 0.0000 (  5522 PWs)   bands (ev):

   -54.9818 -54.9640 -31.5083 -31.4765 -31.3768 -31.2641 -31.2460 -31.1819
   -18.9423 -18.9405  -7.8841  -6.8644  -6.8488  -4.0854  -4.0598  -3.2385
    -3.1828  -1.9158  -1.3861  -0.8288   2.8495   2.9076   4.2037   4.4427
     4.6354

          k =-0.2833 0.4907 0.0000 (  5500 PWs)   bands (ev):

   -54.9776 -54.9644 -31.5027 -31.4745 -31.3939 -31.2798 -31.2410 -31.1904
   -18.9292 -18.9275  -7.8272  -6.8430  -6.8337  -4.0775  -4.0414  -3.3632
    -3.2821  -1.8950  -1.4922  -0.8187   3.0002   3.0265   4.2668   4.2962
     4.6275

          k =-0.3000 0.5196 0.0000 (  5506 PWs)   bands (ev):

   -54.9741 -54.9654 -31.4923 -31.4700 -31.4139 -31.2931 -31.2338 -31.1994
   -18.9202 -18.9186  -7.7886  -6.8276  -6.8234  -4.0391  -4.0085  -3.4709
    -3.3841  -1.8607  -1.5904  -0.8125   3.0978   3.2103   4.0757   4.3450
     4.6051

          k =-0.3167 0.5485 0.0000 (  5510 PWs)   bands (ev):

   -54.9711 -54.9668 -31.4774 -31.4652 -31.4352 -31.3021 -31.2257 -31.2084
   -18.9150 -18.9136  -7.7663  -6.8193  -6.8177  -3.9883  -3.9692  -3.5427
    -3.4797  -1.8131  -1.6783  -0.8091   3.1954   3.3995   3.8252   4.4163
     4.5574

          k =-0.3333 0.5773 0.0000 (  5490 PWs)   bands (ev):

   -54.9689 -54.9686 -31.4626 -31.4624 -31.4528 -31.3053 -31.2177 -31.2168
   -18.9133 -18.9120  -7.7590  -6.8169  -6.8158  -3.9630  -3.9467  -3.5470
    -3.5453  -1.7540  -1.7510  -0.8079   3.2572   3.5866   3.5889   4.4899
     4.4908

          k =-0.3000 0.5773 0.0000 (  5510 PWs)   bands (ev):

   -54.9709 -54.9670 -31.4803 -31.4638 -31.4341 -31.3023 -31.2241 -31.2097
   -18.9148 -18.9134  -7.7658  -6.8195  -6.8165  -3.9862  -3.9794  -3.5475
    -3.4703  -1.8155  -1.6753  -0.8091   3.1181   3.5332   3.7702   4.4162
     4.5633

          k =-0.2667 0.5773 0.0000 (  5500 PWs)   bands (ev):

   -54.9733 -54.9657 -31.5013 -31.4693 -31.4089 -31.2955 -31.2271 -31.2033
   -18.9188 -18.9171  -7.7851  -6.8262  -6.8150  -4.0657  -4.0346  -3.4804
    -3.3489  -1.8682  -1.5764  -0.8105   2.8253   3.6291   3.9416   4.3551
     4.6395

          k =-0.2333 0.5773 0.0000 (  5492 PWs)   bands (ev):

   -54.9757 -54.9649 -31.5212 -31.4778 -31.3820 -31.2901 -31.2232 -31.1981
   -18.9247 -18.9226  -7.8148  -6.8364  -6.8103  -4.1755  -4.0865  -3.3748
    -3.2165  -1.9131  -1.4522  -0.8118   2.5097   3.7511   4.0826   4.3240
     4.7125

          k =-0.2000 0.5773 0.0000 (  5500 PWs)   bands (ev):

   -54.9781 -54.9644 -31.5394 -31.4876 -31.3546 -31.2894 -31.2113 -31.1943
   -18.9318 -18.9292  -7.8517  -6.8491  -6.8019  -4.2892  -4.1326  -3.2513
    -3.0946  -1.9529  -1.2981  -0.8132   2.1890   3.8831   4.1526   4.3636
     4.7780

          k =-0.1667 0.5773 0.0000 (  5506 PWs)   bands (ev):

   -54.9804 -54.9642 -31.5555 -31.4975 -31.3279 -31.2924 -31.1945 -31.1922
   -18.9393 -18.9362  -7.8919  -6.8634  -6.7903  -4.3953  -4.1701  -3.1212
    -2.9946  -1.9900  -1.1126  -0.8150   1.8731   4.0208   4.1553   4.4670
     4.8367

          k =-0.1333 0.5773 0.0000 (  5512 PWs)   bands (ev):

   -54.9825 -54.9641 -31.5692 -31.5065 -31.3029 -31.2968 -31.1919 -31.1766
   -18.9466 -18.9430  -7.9315  -6.8776  -6.7766  -4.4886  -4.1986  -2.9924
    -2.9201  -2.0270  -0.8993  -0.8161   1.5669   4.1386   4.1569   4.5822
     4.8850

          k =-0.1000 0.5773 0.0000 (  5532 PWs)   bands (ev):

   -54.9842 -54.9641 -31.5801 -31.5140 -31.3010 -31.2806 -31.1933 -31.1606
   -18.9529 -18.9490  -7.9666  -6.8913  -6.7637  -4.5648  -4.2188  -2.8737
    -2.8687  -2.0647  -0.8177  -0.6677   1.2730   4.1168   4.2905   4.6956
     4.9162

          k =-0.0667 0.5773 0.0000 (  5546 PWs)   bands (ev):

   -54.9854 -54.9642 -31.5881 -31.5197 -31.3045 -31.2620 -31.1963 -31.1481
   -18.9579 -18.9537  -7.9940  -6.9021  -6.7528  -4.6211  -4.2317  -2.8377
    -2.7716  -2.1012  -0.8189  -0.4328   1.0006   4.0951   4.4118   4.7998
     4.9311

          k =-0.0333 0.5773 0.0000 (  5546 PWs)   bands (ev):

   -54.9862 -54.9643 -31.5929 -31.5232 -31.3066 -31.2487 -31.1999 -31.1401
   -18.9610 -18.9566  -8.0114  -6.9092  -6.7457  -4.6553  -4.2387  -2.8216
    -2.7007  -2.1301  -0.8194  -0.2270   0.7762   4.0794   4.5051   4.8803
     4.9306

          k = 0.0000 0.5773 0.0000 (  5552 PWs)   bands (ev):

   -54.9865 -54.9643 -31.5945 -31.5244 -31.3074 -31.2436 -31.2018 -31.1374
   -18.9621 -18.9576  -8.0175  -6.9116  -6.7433  -4.6669  -4.2409  -2.8163
    -2.6751  -2.1416  -0.8198  -0.1330   0.6756   4.0731   4.5408   4.9104
     4.9266

          k = 0.0333 0.5773 0.0000 (  5546 PWs)   bands (ev):

   -54.9862 -54.9643 -31.5929 -31.5232 -31.3066 -31.2487 -31.1999 -31.1401
   -18.9610 -18.9566  -8.0114  -6.9092  -6.7457  -4.6553  -4.2387  -2.8216
    -2.7007  -2.1301  -0.8194  -0.2270   0.7762   4.0794   4.5051   4.8803
     4.9306

          k = 0.0667 0.5773 0.0000 (  5546 PWs)   bands (ev):

   -54.9854 -54.9642 -31.5881 -31.5197 -31.3045 -31.2620 -31.1963 -31.1481
   -18.9579 -18.9537  -7.9940  -6.9021  -6.7528  -4.6211  -4.2317  -2.8377
    -2.7716  -2.1012  -0.8189  -0.4328   1.0006   4.0951   4.4118   4.7998
     4.9311

          k = 0.1000 0.5773 0.0000 (  5532 PWs)   bands (ev):

   -54.9842 -54.9641 -31.5801 -31.5140 -31.3010 -31.2806 -31.1933 -31.1606
   -18.9529 -18.9490  -7.9666  -6.8913  -6.7637  -4.5648  -4.2188  -2.8737
    -2.8687  -2.0647  -0.8177  -0.6677   1.2730   4.1168   4.2905   4.6956
     4.9162

          k = 0.1333 0.5773 0.0000 (  5512 PWs)   bands (ev):

   -54.9825 -54.9641 -31.5692 -31.5065 -31.3029 -31.2968 -31.1919 -31.1766
   -18.9466 -18.9430  -7.9315  -6.8776  -6.7766  -4.4886  -4.1986  -2.9924
    -2.9201  -2.0270  -0.8993  -0.8161   1.5669   4.1386   4.1569   4.5822
     4.8850

          k = 0.1667 0.5773 0.0000 (  5506 PWs)   bands (ev):

   -54.9804 -54.9642 -31.5555 -31.4975 -31.3279 -31.2924 -31.1945 -31.1922
   -18.9393 -18.9362  -7.8919  -6.8634  -6.7903  -4.3953  -4.1701  -3.1212
    -2.9946  -1.9900  -1.1126  -0.8150   1.8731   4.0208   4.1553   4.4670
     4.8367

          k = 0.2000 0.5773 0.0000 (  5500 PWs)   bands (ev):

   -54.9781 -54.9644 -31.5394 -31.4876 -31.3546 -31.2894 -31.2113 -31.1943
   -18.9318 -18.9292  -7.8517  -6.8491  -6.8019  -4.2892  -4.1326  -3.2513
    -3.0946  -1.9529  -1.2981  -0.8132   2.1890   3.8831   4.1526   4.3636
     4.7780

          k = 0.2333 0.5773 0.0000 (  5492 PWs)   bands (ev):

   -54.9757 -54.9649 -31.5212 -31.4778 -31.3820 -31.2901 -31.2232 -31.1981
   -18.9247 -18.9226  -7.8148  -6.8364  -6.8103  -4.1755  -4.0865  -3.3748
    -3.2165  -1.9131  -1.4522  -0.8118   2.5097   3.7511   4.0826   4.3240
     4.7125

          k = 0.2667 0.5773 0.0000 (  5500 PWs)   bands (ev):

   -54.9733 -54.9657 -31.5013 -31.4693 -31.4089 -31.2955 -31.2271 -31.2033
   -18.9188 -18.9171  -7.7851  -6.8262  -6.8150  -4.0657  -4.0346  -3.4804
    -3.3489  -1.8682  -1.5764  -0.8105   2.8253   3.6291   3.9416   4.3551
     4.6395

          k = 0.3000 0.5773 0.0000 (  5510 PWs)   bands (ev):

   -54.9709 -54.9670 -31.4803 -31.4638 -31.4341 -31.3023 -31.2241 -31.2097
   -18.9148 -18.9134  -7.7658  -6.8195  -6.8165  -3.9862  -3.9794  -3.5475
    -3.4703  -1.8155  -1.6753  -0.8091   3.1181   3.5332   3.7702   4.4162
     4.5633

          k = 0.3333 0.5773 0.0000 (  5490 PWs)   bands (ev):

   -54.9689 -54.9686 -31.4626 -31.4624 -31.4528 -31.3053 -31.2177 -31.2168
   -18.9133 -18.9120  -7.7590  -6.8169  -6.8158  -3.9630  -3.9467  -3.5470
    -3.5453  -1.7540  -1.7510  -0.8079   3.2572   3.5866   3.5889   4.4899
     4.4908

          k = 0.3167 0.5485 0.0000 (  5510 PWs)   bands (ev):

   -54.9710 -54.9670 -31.4777 -31.4653 -31.4349 -31.3019 -31.2249 -31.2092
   -18.9150 -18.9136  -7.7661  -6.8194  -6.8176  -3.9883  -3.9690  -3.5421
    -3.4801  -1.8157  -1.6764  -0.8095   3.1944   3.3977   3.8276   4.4170
     4.5568

          k = 0.3000 0.5196 0.0000 (  5506 PWs)   bands (ev):

   -54.9739 -54.9655 -31.4927 -31.4702 -31.4135 -31.2927 -31.2331 -31.2002
   -18.9202 -18.9186  -7.7882  -6.8276  -6.8234  -4.0390  -4.0083  -3.4704
    -3.3843  -1.8635  -1.5890  -0.8132   3.0965   3.2087   4.0777   4.3459
     4.6046

          k = 0.2833 0.4907 0.0000 (  5500 PWs)   bands (ev):

   -54.9775 -54.9645 -31.5031 -31.4748 -31.3936 -31.2794 -31.2403 -31.1912
   -18.9292 -18.9275  -7.8268  -6.8430  -6.8336  -4.0773  -4.0411  -3.3627
    -3.2821  -1.8980  -1.4913  -0.8196   2.9984   3.0250   4.2673   4.2985
     4.6269

          k = 0.2667 0.4619 0.0000 (  5522 PWs)   bands (ev):

   -54.9817 -54.9641 -31.5087 -31.4769 -31.3764 -31.2636 -31.2453 -31.1827
   -18.9423 -18.9405  -7.8836  -6.8644  -6.8487  -4.0852  -4.0594  -3.2381
    -3.1827  -1.9189  -1.3857  -0.8298   2.8478   2.9061   4.2049   4.4441
     4.6348

          k = 0.2500 0.4330 0.0000 (  5528 PWs)   bands (ev):

   -54.9865 -54.9642 -31.5096 -31.4751 -31.3633 -31.2467 -31.2463 -31.1746
   -18.9594 -18.9577  -7.9603  -6.8872  -6.8684  -4.0596  -4.0548  -3.1061
    -3.0879  -1.9230  -1.2760  -0.8406   2.6849   2.8240   4.1378   4.5286
     4.6369

          k = 0.2333 0.4041 0.0000 (  5510 PWs)   bands (ev):

   -54.9919 -54.9649 -31.5068 -31.4685 -31.3548 -31.2421 -31.2293 -31.1671
   -18.9803 -18.9788  -8.0574  -6.9061  -6.8931  -4.0377  -3.9876  -3.0000
    -2.9745  -1.9065  -1.1688  -0.8490   2.5394   2.7507   4.0681   4.5487
     4.6376

          k = 0.2167 0.3753 0.0000 (  5512 PWs)   bands (ev):

   -54.9978 -54.9661 -31.5018 -31.4570 -31.3492 -31.2329 -31.2127 -31.1602
   -19.0049 -19.0037  -8.1739  -6.9241  -6.9173  -3.9956  -3.8871  -2.9194
    -2.8530  -1.8641  -1.0789  -0.8440   2.4152   2.6856   3.9869   4.4998
     4.6295

          k = 0.2000 0.3464 0.0000 (  5520 PWs)   bands (ev):

   -55.0041 -54.9679 -31.4971 -31.4407 -31.3429 -31.2204 -31.1974 -31.1533
   -19.0330 -19.0315  -8.3067  -6.9611  -6.9178  -3.9328  -3.7591  -2.8466
    -2.7504  -1.7900  -1.0317  -0.7994   2.3153   2.6301   3.8830   4.3935
     4.5340

          k = 0.1833 0.3175 0.0000 (  5526 PWs)   bands (ev):

   -55.0107 -54.9701 -31.4952 -31.4200 -31.3319 -31.2063 -31.1845 -31.1459
   -19.0641 -19.0615  -8.4512  -7.0034  -6.9057  -3.8502  -3.6104  -2.7834
    -2.6719  -1.6806  -1.0323  -0.7107   2.2419   2.5825   3.7391   4.2102
     4.2631

          k = 0.1667 0.2887 0.0000 (  5518 PWs)   bands (ev):

   -55.0175 -54.9727 -31.4977 -31.3957 -31.3143 -31.1919 -31.1746 -31.1374
   -19.0974 -19.0931  -8.6023  -7.0519  -6.8814  -3.7481  -3.4503  -2.7305
    -2.6146  -1.5369  -1.0578  -0.5999   2.1997   2.5439   3.5551   3.8878
     4.1367

          k = 0.1500 0.2598 0.0000 (  5480 PWs)   bands (ev):

   -55.0242 -54.9755 -31.5043 -31.3686 -31.2904 -31.1779 -31.1677 -31.1278
   -19.1319 -19.1255  -8.7547  -7.1053  -6.8461  -3.6281  -3.2874  -2.6891
    -2.5736  -1.3639  -1.0958  -0.4791   2.1882   2.5142   3.3510   3.5924
     4.0094

          k = 0.1333 0.2309 0.0000 (  5496 PWs)   bands (ev):

   -55.0309 -54.9785 -31.5138 -31.3402 -31.2619 -31.1648 -31.1630 -31.1178
   -19.1668 -19.1579  -8.9040  -7.1630  -6.8026  -3.4929  -3.1342  -2.6608
    -2.5434  -1.1681  -1.1444  -0.3533   2.2029   2.4883   3.1479   3.3274
     3.8538

          k = 0.1167 0.2021 0.0000 (  5512 PWs)   bands (ev):

   -55.0372 -54.9816 -31.5247 -31.3116 -31.2313 -31.1594 -31.1526 -31.1082
   -19.2010 -19.1893  -9.0458  -7.2229  -6.7528  -3.3437  -2.9997  -2.6449
    -2.5163  -1.2023  -0.9528  -0.2240   2.2402   2.4653   2.9639   3.0955
     3.6720

          k = 0.1000 0.1732 0.0000 (  5497 PWs)   bands (ev):

   -55.0431 -54.9845 -31.5359 -31.2845 -31.2008 -31.1559 -31.1414 -31.0997
   -19.2333 -19.2188  -9.1762  -7.2821  -6.6994  -3.1830  -2.8910  -2.6388
    -2.4872  -1.2692  -0.7218  -0.0945   2.2953   2.4373   2.8135   2.8991
     3.4778

          k = 0.0833 0.1443 0.0000 (  5497 PWs)   bands (ev):

   -55.0483 -54.9872 -31.5465 -31.2604 -31.1729 -31.1518 -31.1305 -31.0925
   -19.2628 -19.2456  -9.2922  -7.3383  -6.6459  -3.0169  -2.8129  -2.6408
    -2.4567  -1.3450  -0.4822   0.0289   2.3563   2.3932   2.7100   2.7396
     3.2807

          k = 0.0667 0.1155 0.0000 (  5511 PWs)   bands (ev):

   -55.0528 -54.9896 -31.5560 -31.2409 -31.1509 -31.1462 -31.1185 -31.0869
   -19.2886 -19.2688  -9.3909  -7.3891  -6.5958  -2.8507  -2.7596  -2.6465
    -2.4286  -1.4294  -0.2421   0.1397   2.3256   2.4116   2.6213   2.6560
     3.0907

          k = 0.0500 0.0866 0.0000 (  5499 PWs)   bands (ev):

   -55.0565 -54.9916 -31.5638 -31.2269 -31.1394 -31.1369 -31.1044 -31.0828
   -19.3096 -19.2876  -9.4700  -7.4315  -6.5523  -2.7247  -2.7062  -2.6368
    -2.4059  -1.5188  -0.0155   0.2325   2.2543   2.4333   2.5660   2.6360
     2.9183

          k = 0.0333 0.0577 0.0000 (  5489 PWs)   bands (ev):

   -55.0591 -54.9930 -31.5696 -31.2180 -31.1323 -31.1293 -31.0911 -31.0803
   -19.3252 -19.3015  -9.5278  -7.4632  -6.5188  -2.7011  -2.6789  -2.5287
    -2.3911  -1.6071   0.1777   0.3011   2.1948   2.4058   2.5789   2.6285
     2.7749

          k = 0.0167 0.0289 0.0000 (  5501 PWs)   bands (ev):

   -55.0608 -54.9939 -31.5732 -31.2134 -31.1270 -31.1255 -31.0820 -31.0791
   -19.3348 -19.3100  -9.5630  -7.4833  -6.4979  -2.6883  -2.6822  -2.4238
    -2.3839  -1.6792   0.3103   0.3427   2.1564   2.3776   2.6021   2.6215
     2.6805

          k = 0.0000 0.0000 0.0000 (  5509 PWs)   bands (ev):

   -55.0613 -54.9943 -31.5744 -31.2119 -31.1250 -31.1243 -31.0789 -31.0787
   -19.3380 -19.3129  -9.5748  -7.4902  -6.4906  -2.6845  -2.6834  -2.3827
    -2.3812  -1.7092   0.3562   0.3576   2.1430   2.3676   2.6107   2.6119
     2.6539

     Writing all to output data dir ./tmp/ti2coh2.save/ :
     XML data file, pseudopotentials, collected wavefunctions

     init_run     :      0.73s CPU      0.76s WALL (       1 calls)
     electrons    :     60.58s CPU     62.55s WALL (       1 calls)

     Called by init_run:
     wfcinit      :      0.00s CPU      0.00s WALL (       1 calls)
     potinit      :      0.37s CPU      0.37s WALL (       1 calls)
     hinit0       :      0.28s CPU      0.27s WALL (       1 calls)

     Called by electrons:
     c_bands      :     60.57s CPU     62.55s WALL (       1 calls)
     v_of_rho     :      0.02s CPU      0.03s WALL (       1 calls)
     newd         :      0.07s CPU      0.10s WALL (       1 calls)
     PAW_pot      :      0.13s CPU      0.13s WALL (       1 calls)

     Called by c_bands:
     init_us_2    :      0.02s CPU      0.02s WALL (      61 calls)
     cegterg      :     59.00s CPU     61.05s WALL (     313 calls)

     Called by *egterg:
     cdiaghg      :      4.05s CPU      3.81s WALL (    5783 calls)
     h_psi        :     26.52s CPU     25.69s WALL (    6096 calls)
     s_psi        :      4.18s CPU      3.92s WALL (    6096 calls)
     g_psi        :      0.10s CPU      0.09s WALL (    5722 calls)

     Called by h_psi:
     h_psi:calbec :      5.68s CPU      5.54s WALL (    6096 calls)
     vloc_psi     :     16.57s CPU     16.09s WALL (    6096 calls)
                                        0.00s GPU  (    6096 calls)
     add_vuspsi   :      4.16s CPU      3.95s WALL (    6096 calls)

     General routines
     calbec       :      5.66s CPU      5.53s WALL (    6096 calls)
     fft          :      0.20s CPU      0.19s WALL (      13 calls)
     ffts         :      0.22s CPU      0.20s WALL (       1 calls)
     fftw         :     15.31s CPU     14.87s WALL (  123958 calls)
     interpolate  :      0.22s CPU      0.20s WALL (       1 calls)
     davcio       :      0.01s CPU      0.01s WALL (     122 calls)

     Parallel routines

     PWSCF        :   1m 1.56s CPU   1m 3.63s WALL


   This run was terminated on:  14:40:30  22Sep2026            

=------------------------------------------------------------------------------=
   JOB DONE.
=------------------------------------------------------------------------------=
