
     Program PWSCF v.7.5 starts on 24Sep2026 at 16: 7:25 

     This program is part of the open-source Quantum ESPRESSO suite
     for quantum simulation of materials; please cite
         "P. Giannozzi et al., J. Phys.:Condens. Matter 21 395502 (2009);
         "P. Giannozzi et al., J. Phys.:Condens. Matter 29 465901 (2017);
         "P. Giannozzi et al., J. Chem. Phys. 152 154105 (2020);
          URL http://www.quantum-espresso.org", 
     in publications or presentations arising from this work. More details at
     http://www.quantum-espresso.org/quote

     Parallel version (MPI), running on     4 processors

     MPI processes distributed on     1 nodes
     6871 MiB available memory on the printing compute node when the environment starts

     Waiting for input...
     Reading input from standard input
Warning: card &IONS ignored

     Current dimensions of program PWSCF are:
     Max number of different atomic species (ntypx) = 10
     Max number of k-points (npk) =  40000
     Max angular momentum in pseudopotentials (lmaxx) =  4

     Atomic positions and unit cell read from directory:
     ./tmp/ti2coh2_eps.save/


     R & G space division:  proc/nbgrp/npool/nimage =       4
     Subspace diagonalization in iterative solution of the eigenvalue problem:
     a serial algorithm will be used


     Parallelization info
     --------------------
     sticks:   dense  smooth     PW     G-vecs:    dense   smooth      PW
     Min         186      91     30                31254    11049    2206
     Max         187      92     31                31267    11060    2239
     Sum         745     367    121               125043    44215    8867

     Using Slab Decomposition



     bravais-lattice index     =            0
     lattice parameter (alat)  =       5.7603  a.u.
     unit-cell volume          =    1291.6657 (a.u.)^3
     number of atoms/cell      =            7
     number of atomic types    =            4
     number of electrons       =        42.00
     number of Kohn-Sham states=           80
     kinetic-energy cutoff     =      40.0000  Ry
     charge density cutoff     =     320.0000  Ry
     Exchange-correlation= PBE
                           (   1   4   3   4   0   0   0)

     celldm(1)=   5.760320  celldm(2)=   0.000000  celldm(3)=   0.000000
     celldm(4)=   0.000000  celldm(5)=   0.000000  celldm(6)=   0.000000

     crystal axes: (cart. coord. in units of alat)
               a(1) = (   1.000000   0.000000   0.000000 )  
               a(2) = (  -0.500002   0.866027   0.000000 )  
               a(3) = (   0.000000   0.000000   7.803309 )  

     reciprocal axes: (cart. coord. in units 2 pi/alat)
               b(1) = (  1.000000  0.577351 -0.000000 )  
               b(2) = (  0.000000  1.154698  0.000000 )  
               b(3) = (  0.000000 -0.000000  0.128151 )  


     PseudoPot. # 1 for Ti read from file:
     ../pseudopotential/Ti.upf
     MD5 check sum: 0b3868d933a8ea9356727c02a1b807de
     Pseudo is Norm-conserving + core correction, Zval = 12.0
     Generated using ONCVPSP code by D. R. Hamann
     Using radial grid of 1586 points,  6 beta functions with: 
                l(1) =   0
                l(2) =   0
                l(3) =   1
                l(4) =   1
                l(5) =   2
                l(6) =   2

     PseudoPot. # 2 for C  read from file:
     ../pseudopotential/C.upf
     MD5 check sum: 34a24e64c0a39f27c6c36b90a16ac686
     Pseudo is Norm-conserving + core correction, Zval =  4.0
     Generated using ONCVPSP code by D. R. Hamann
     Using radial grid of 1248 points,  4 beta functions with: 
                l(1) =   0
                l(2) =   0
                l(3) =   1
                l(4) =   1

     PseudoPot. # 3 for O  read from file:
     ../pseudopotential/O.upf
     MD5 check sum: 3e3f909f7470e8921608ab6b1f57bbae
     Pseudo is Norm-conserving + core correction, Zval =  6.0
     Generated using ONCVPSP code by D. R. Hamann
     Using radial grid of  936 points,  5 beta functions with: 
                l(1) =   0
                l(2) =   0
                l(3) =   1
                l(4) =   1
                l(5) =   2

     PseudoPot. # 4 for H  read from file:
     ../pseudopotential/H.upf
     MD5 check sum: e96aa7e3e4a958db16958554ea960e2a
     Pseudo is Norm-conserving, Zval =  1.0
     Generated using ONCVPSP code by D. R. Hamann
     Using radial grid of 1166 points,  3 beta functions with: 
                l(1) =   0
                l(2) =   0
                l(3) =   1

     atomic species   valence    mass     pseudopotential
     Ti               12.00    47.86700     Ti( 1.00)
     C                 4.00    12.01100     C ( 1.00)
     O                 6.00    15.99900     O ( 1.00)
     H                 1.00     1.00800     H ( 1.00)

     No symmetry found



   Cartesian axes

     site n.     atom                  positions (alat units)
         1        Ti     tau(   1) = (  -0.1033350   0.5779378   1.0249980  )
         2        Ti     tau(   2) = (   0.3973285   0.2892394   1.7843821  )
         3        C      tau(   3) = (   0.8969638   0.0006040   1.4046691  )
         4        O      tau(   4) = (  -0.1027867   0.5780304   2.2008896  )
         5        O      tau(   5) = (   0.3968948   0.2897217   0.6086130  )
         6        H      tau(   6) = (   0.3970262   0.2932940   0.2887049  )
         7        H      tau(   7) = (  -0.1042237   0.5779512   2.5208202  )

     number of k points=   144  Marzari-Vanderbilt smearing, width (Ry)=  0.0200

     Number of k-points >= 100: set verbosity='high' to print them.

     Dense  grid:   125043 G-vectors     FFT dimensions: (  36,  36, 256)

     Smooth grid:    44215 G-vectors     FFT dimensions: (  24,  24, 192)

     Estimated max dynamical RAM per process >      29.77 MB

     Estimated total dynamical RAM >     119.08 MB

     The potential is recalculated from file :
     ./tmp/ti2coh2_eps.save/charge-density

     Starting wfcs are   34 randomized atomic wfcs +   46 random wfcs

     Band Structure Calculation
     Davidson diagonalization with overlap

     ethr =  2.38E-11,  avg # of iterations = 36.0

     total cpu time spent up to now is     1966.2 secs

     End of band structure calculation

     Number of k-points >= 100: set verbosity='high' to print the bands.

     the Fermi energy is     2.6668 ev
     (compare with:     2.6668 eV, computed in scf)

     Writing all to output data dir ./tmp/ti2coh2_eps.save/ :
     XML data file, pseudopotentials, collected wavefunctions

     init_run     :      0.48s CPU      0.52s WALL (       1 calls)
     electrons    :   1420.70s CPU   1965.62s WALL (       1 calls)

     Called by init_run:
     wfcinit      :      0.00s CPU      0.00s WALL (       1 calls)
     potinit      :      0.25s CPU      0.26s WALL (       1 calls)
     hinit0       :      0.21s CPU      0.23s WALL (       1 calls)

     Called by electrons:
     c_bands      :   1420.70s CPU   1965.61s WALL (       1 calls)
     v_of_rho     :      0.02s CPU      0.03s WALL (       1 calls)

     Called by c_bands:
     init_us_2    :      0.12s CPU      0.13s WALL (     144 calls)
     cegterg      :   1365.32s CPU   1888.63s WALL (     305 calls)

     Called by *egterg:
     cdiaghg      :     96.69s CPU    136.52s WALL (    5321 calls)
     h_psi        :    756.38s CPU   1067.77s WALL (    5626 calls)
     g_psi        :      0.78s CPU      1.00s WALL (    5177 calls)

     Called by h_psi:
     h_psi:calbec :     78.14s CPU    101.18s WALL (    5626 calls)
     vloc_psi     :    637.31s CPU    913.22s WALL (    5626 calls)
                                        0.00s GPU  (    5626 calls)
     add_vuspsi   :     39.56s CPU     51.60s WALL (    5626 calls)

     General routines
     calbec       :     78.11s CPU    101.17s WALL (    5626 calls)
     fft          :      0.19s CPU      0.19s WALL (      12 calls)
     ffts         :      0.22s CPU      0.22s WALL (       1 calls)
     fftw         :    625.61s CPU    899.66s WALL (  439910 calls)
     interpolate  :      0.22s CPU      0.22s WALL (       1 calls)
     davcio       :      0.19s CPU      1.21s WALL (     288 calls)

     Parallel routines

     PWSCF        :  23m42.07s CPU  32m49.16s WALL


   This run was terminated on:  16:40:14  24Sep2026            

=------------------------------------------------------------------------------=
   JOB DONE.
=------------------------------------------------------------------------------=
