
     Program PWSCF v.7.5 starts on 22Sep2026 at 16:33:30 

     This program is part of the open-source Quantum ESPRESSO suite
     for quantum simulation of materials; please cite
         "P. Giannozzi et al., J. Phys.:Condens. Matter 21 395502 (2009);
         "P. Giannozzi et al., J. Phys.:Condens. Matter 29 465901 (2017);
         "P. Giannozzi et al., J. Chem. Phys. 152 154105 (2020);
          URL http://www.quantum-espresso.org", 
     in publications or presentations arising from this work. More details at
     http://www.quantum-espresso.org/quote

     Parallel version (MPI), running on     4 processors

     MPI processes distributed on     1 nodes
     5596 MiB available memory on the printing compute node when the environment starts

     Waiting for input...
     Reading input from standard input
Warning: card &IONS ignored

     Current dimensions of program PWSCF are:
     Max number of different atomic species (ntypx) = 10
     Max number of k-points (npk) =  40000
     Max angular momentum in pseudopotentials (lmaxx) =  4
     file Ti.pbe-spn-kjpaw_psl.1.0.0.UPF: wavefunction(s)  3S 3P 3D renormalized
     file C.pbe-n-kjpaw_psl.1.0.0.UPF: wavefunction(s)  2S 2P renormalized
     file O.pbe-n-kjpaw_psl.1.0.0.UPF: wavefunction(s)  2S 2P renormalized
     file H.pbe-kjpaw_psl.1.0.0.UPF: wavefunction(s)  1S renormalized

     Atomic positions and unit cell read from directory:
     ./tmp/ti2coh2.save/


     R & G space division:  proc/nbgrp/npool/nimage =       4
     Subspace diagonalization in iterative solution of the eigenvalue problem:
     a serial algorithm will be used


     Parallelization info
     --------------------
     sticks:   dense  smooth     PW     G-vecs:    dense   smooth      PW
     Min         186      91     30                31254    11049    2206
     Max         187      92     31                31267    11060    2239
     Sum         745     367    121               125043    44215    8867

     Using Slab Decomposition



     bravais-lattice index     =            0
     lattice parameter (alat)  =       5.7603  a.u.
     unit-cell volume          =    1291.6657 (a.u.)^3
     number of atoms/cell      =            7
     number of atomic types    =            4
     number of electrons       =        42.00
     number of Kohn-Sham states=           25
     kinetic-energy cutoff     =      40.0000  Ry
     charge density cutoff     =     320.0000  Ry
     Exchange-correlation= SLA  PW   PBX  PBC
                           (   1   4   3   4   0   0   0)

     celldm(1)=   5.760320  celldm(2)=   0.000000  celldm(3)=   0.000000
     celldm(4)=   0.000000  celldm(5)=   0.000000  celldm(6)=   0.000000

     crystal axes: (cart. coord. in units of alat)
               a(1) = (   1.000000   0.000000   0.000000 )  
               a(2) = (  -0.500002   0.866027   0.000000 )  
               a(3) = (   0.000000   0.000000   7.803309 )  

     reciprocal axes: (cart. coord. in units 2 pi/alat)
               b(1) = (  1.000000  0.577351 -0.000000 )  
               b(2) = (  0.000000  1.154698  0.000000 )  
               b(3) = (  0.000000 -0.000000  0.128151 )  


     PseudoPot. # 1 for Ti read from file:
     ../pseudopotential/Ti.pbe-spn-kjpaw_psl.1.0.0.UPF
     MD5 check sum: 01f69b0d8ba4438b2e03ac6ea4af1c0b
     Pseudo is Projector augmented-wave + core cor, Zval = 12.0
     Generated using &quot;atomic&quot; code by A. Dal Corso  v.6.2.2
     Shape of augmentation charge: PSQ
     Using radial grid of 1177 points,  6 beta functions with: 
                l(1) =   0
                l(2) =   0
                l(3) =   1
                l(4) =   1
                l(5) =   2
                l(6) =   2
     Q(r) pseudized with 0 coefficients 


     PseudoPot. # 2 for C  read from file:
     ../pseudopotential/C.pbe-n-kjpaw_psl.1.0.0.UPF
     MD5 check sum: 5f16ad9a65e90284d1d834d4ab3b0f7d
     Pseudo is Projector augmented-wave + core cor, Zval =  4.0
     Generated using &quot;atomic&quot; code by A. Dal Corso  v.6.3
     Shape of augmentation charge: PSQ
     Using radial grid of 1073 points,  4 beta functions with: 
                l(1) =   0
                l(2) =   0
                l(3) =   1
                l(4) =   1
     Q(r) pseudized with 0 coefficients 


     PseudoPot. # 3 for O  read from file:
     ../pseudopotential/O.pbe-n-kjpaw_psl.1.0.0.UPF
     MD5 check sum: e99d9cef9b487d1ca56f5b95ecd0fd7a
     Pseudo is Projector augmented-wave + core cor, Zval =  6.0
     Generated using &quot;atomic&quot; code by A. Dal Corso  v.6.3
     Shape of augmentation charge: PSQ
     Using radial grid of 1095 points,  4 beta functions with: 
                l(1) =   0
                l(2) =   0
                l(3) =   1
                l(4) =   1
     Q(r) pseudized with 0 coefficients 


     PseudoPot. # 4 for H  read from file:
     ../pseudopotential/H.pbe-kjpaw_psl.1.0.0.UPF
     MD5 check sum: d81a744832360e4a8af0b0b5b123bc2a
     Pseudo is Projector augmented-wave, Zval =  1.0
     Generated using &quot;atomic&quot; code by A. Dal Corso  v.6.3MaX
     Shape of augmentation charge: PSQ
     Using radial grid of  929 points,  2 beta functions with: 
                l(1) =   0
                l(2) =   0
     Q(r) pseudized with 0 coefficients 


     atomic species   valence    mass     pseudopotential
     Ti               12.00    47.86700     Ti( 1.00)
     C                 4.00    12.01100     C ( 1.00)
     O                 6.00    15.99900     O ( 1.00)
     H                 1.00     1.00800     H ( 1.00)

     No symmetry found



   Cartesian axes

     site n.     atom                  positions (alat units)
         1        Ti     tau(   1) = (  -0.1033350   0.5779378   1.0249980  )
         2        Ti     tau(   2) = (   0.3973285   0.2892394   1.7843821  )
         3        C      tau(   3) = (   0.8969638   0.0006040   1.4046691  )
         4        O      tau(   4) = (  -0.1027867   0.5780304   2.2008896  )
         5        O      tau(   5) = (   0.3968948   0.2897217   0.6086130  )
         6        H      tau(   6) = (   0.3970262   0.2932940   0.2887049  )
         7        H      tau(   7) = (  -0.1042237   0.5779512   2.5208202  )

     number of k points=    34 (tetrahedron method)
                       cart. coord. in units 2pi/alat
        k(    1) = (   0.0000000   0.0000000   0.0000000), wk =   0.0312500
        k(    2) = (   0.0000000   0.1443373   0.0000000), wk =   0.0625000
        k(    3) = (   0.0000000   0.2886745   0.0000000), wk =   0.0625000
        k(    4) = (   0.0000000   0.4330118   0.0000000), wk =   0.0625000
        k(    5) = (   0.0000000  -0.5773491   0.0000000), wk =   0.0312500
        k(    6) = (   0.1250000   0.0721689   0.0000000), wk =   0.0625000
        k(    7) = (   0.1250000   0.2165061   0.0000000), wk =   0.0625000
        k(    8) = (   0.1250000   0.3608434   0.0000000), wk =   0.0625000
        k(    9) = (   0.1250000   0.5051807   0.0000000), wk =   0.0625000
        k(   10) = (   0.1250000  -0.5051802   0.0000000), wk =   0.0625000
        k(   11) = (   0.1250000  -0.3608429   0.0000000), wk =   0.0625000
        k(   12) = (   0.1250000  -0.2165057   0.0000000), wk =   0.0625000
        k(   13) = (   0.1250000  -0.0721684   0.0000000), wk =   0.0625000
        k(   14) = (   0.2500000   0.1443377   0.0000000), wk =   0.0625000
        k(   15) = (   0.2500000   0.2886750   0.0000000), wk =   0.0625000
        k(   16) = (   0.2500000   0.4330123   0.0000000), wk =   0.0625000
        k(   17) = (   0.2500000   0.5773496   0.0000000), wk =   0.0625000
        k(   18) = (   0.2500000  -0.4330113   0.0000000), wk =   0.0625000
        k(   19) = (   0.2500000  -0.2886741   0.0000000), wk =   0.0625000
        k(   20) = (   0.2500000  -0.1443368   0.0000000), wk =   0.0625000
        k(   21) = (   0.2500000   0.0000005   0.0000000), wk =   0.0625000
        k(   22) = (   0.3750000   0.2165066   0.0000000), wk =   0.0625000
        k(   23) = (   0.3750000   0.3608439   0.0000000), wk =   0.0625000
        k(   24) = (   0.3750000   0.5051812   0.0000000), wk =   0.0625000
        k(   25) = (   0.3750000   0.6495184   0.0000000), wk =   0.0625000
        k(   26) = (   0.3750000  -0.3608425   0.0000000), wk =   0.0625000
        k(   27) = (   0.3750000  -0.2165052   0.0000000), wk =   0.0625000
        k(   28) = (   0.3750000  -0.0721679   0.0000000), wk =   0.0625000
        k(   29) = (   0.3750000   0.0721693   0.0000000), wk =   0.0625000
        k(   30) = (  -0.5000000  -0.2886755   0.0000000), wk =   0.0312500
        k(   31) = (  -0.5000000  -0.1443382   0.0000000), wk =   0.0625000
        k(   32) = (  -0.5000000  -0.0000009   0.0000000), wk =   0.0625000
        k(   33) = (  -0.5000000   0.1443363   0.0000000), wk =   0.0625000
        k(   34) = (  -0.5000000  -0.8660246   0.0000000), wk =   0.0312500

     Dense  grid:   125043 G-vectors     FFT dimensions: (  36,  36, 256)

     Smooth grid:    44215 G-vectors     FFT dimensions: (  24,  24, 192)

     Estimated max dynamical RAM per process >     109.95 MB

     Estimated total dynamical RAM >     439.79 MB

     Check: negative core charge=   -0.000005

     The potential is recalculated from file :
     ./tmp/ti2coh2.save/charge-density


     negative rho (up, down):  8.113E-04 0.000E+00
     Starting wfcs are   34 randomized atomic wfcs
     Checking if some PAW data can be deallocated... 

     Band Structure Calculation
     Davidson diagonalization with overlap
     c_bands:  1 eigenvalues not converged
     c_bands:  1 eigenvalues not converged
     c_bands:  1 eigenvalues not converged
     c_bands:  1 eigenvalues not converged
     c_bands:  1 eigenvalues not converged
     c_bands:  1 eigenvalues not converged
     c_bands:  1 eigenvalues not converged

     ethr =  2.38E-11,  avg # of iterations = 99.6

     total cpu time spent up to now is      124.9 secs

     End of band structure calculation

          k = 0.0000 0.0000 0.0000 (  5509 PWs)   bands (ev):

   -55.0613 -54.9943 -31.5744 -31.2119 -31.1250 -31.1243 -31.0789 -31.0787
   -19.3380 -19.3129  -9.5748  -7.4902  -6.4906  -2.6845  -2.6834  -2.3827
    -2.3812  -1.7092   0.3562   0.3576   2.1430   2.3676   2.6107   2.6119
     2.6539

          k = 0.0000 0.1443 0.0000 (  5490 PWs)   bands (ev):

   -55.0514 -54.9888 -31.5531 -31.2478 -31.1535 -31.1441 -31.1327 -31.0854
   -19.2805 -19.2616  -9.3604  -7.3731  -6.6116  -2.8988  -2.7799  -2.6590
    -2.4214  -1.4014  -0.3526   0.1547   2.2230   2.4335   2.5925   2.9091
     3.0502

          k = 0.0000 0.2887 0.0000 (  5504 PWs)   bands (ev):

   -55.0267 -54.9766 -31.5086 -31.3780 -31.2620 -31.1871 -31.1677 -31.1053
   -19.1446 -19.1375  -8.8123  -7.1341  -6.8225  -3.6358  -3.2465  -2.6554
    -2.5317  -1.4225  -1.0852  -0.0975   1.5221   3.1224   3.2871   3.5472
     3.7980

          k = 0.0000 0.4330 0.0000 (  5538 PWs)   bands (ev):

   -54.9995 -54.9666 -31.5410 -31.4884 -31.3226 -31.2274 -31.1863 -31.1278
   -19.0138 -19.0115  -8.2362  -6.9866  -6.8309  -4.2785  -3.9745  -2.7504
    -2.6367  -1.9764  -0.9037  -0.1491   0.9121   3.9550   4.2187   4.3372
     4.4610

          k = 0.0000-0.5773 0.0000 (  5552 PWs)   bands (ev):

   -54.9865 -54.9643 -31.5945 -31.5244 -31.3074 -31.2436 -31.2018 -31.1374
   -18.9621 -18.9576  -8.0175  -6.9116  -6.7433  -4.6669  -4.2409  -2.8163
    -2.6751  -2.1416  -0.8198  -0.1330   0.6756   4.0731   4.5408   4.9104
     4.9266

          k = 0.1250 0.0722 0.0000 (  5490 PWs)   bands (ev):

   -55.0514 -54.9888 -31.5530 -31.2478 -31.1537 -31.1440 -31.1325 -31.0854
   -19.2805 -19.2616  -9.3605  -7.3731  -6.6111  -2.9002  -2.7797  -2.6579
    -2.4201  -1.4030  -0.3525   0.1536   2.2195   2.4344   2.5923   2.9101
     3.0523

          k = 0.1250 0.2165 0.0000 (  5494 PWs)   bands (ev):

   -55.0341 -54.9800 -31.5191 -31.3258 -31.2467 -31.1611 -31.1586 -31.1129
   -19.1840 -19.1738  -8.9761  -7.1927  -6.7783  -3.4197  -3.0636  -2.6510
    -2.5297  -1.1723  -1.0621  -0.2887   2.2195   2.4770   3.0528   3.2073
     3.7656

          k = 0.1250 0.3608 0.0000 (  5536 PWs)   bands (ev):

   -55.0079 -54.9692 -31.5000 -31.4424 -31.3270 -31.2227 -31.1775 -31.1430
   -19.0508 -19.0488  -8.3933  -6.9994  -6.8935  -3.9426  -3.7010  -2.7554
    -2.7005  -1.7678  -0.9852  -0.6275   1.8040   3.0396   3.8609   4.2407
     4.3163

          k = 0.1250 0.5052 0.0000 (  5528 PWs)   bands (ev):

   -54.9865 -54.9642 -31.5600 -31.5012 -31.3136 -31.2794 -31.1909 -31.1673
   -18.9608 -18.9576  -7.9902  -6.9026  -6.8021  -4.4140  -4.1541  -2.9313
    -2.8784  -2.0165  -0.8629  -0.7917   1.5268   3.8965   4.2052   4.5780
     4.8588

          k = 0.1250-0.5052 0.0000 (  5528 PWs)   bands (ev):

   -54.9865 -54.9642 -31.5599 -31.5011 -31.3136 -31.2795 -31.1914 -31.1667
   -18.9608 -18.9576  -7.9904  -6.9026  -6.8020  -4.4139  -4.1544  -2.9314
    -2.8782  -2.0159  -0.8590  -0.7955   1.5271   3.8979   4.2056   4.5777
     4.8591

          k = 0.1250-0.3608 0.0000 (  5536 PWs)   bands (ev):

   -55.0079 -54.9691 -31.4999 -31.4421 -31.3270 -31.2230 -31.1780 -31.1425
   -19.0508 -19.0488  -8.3935  -6.9995  -6.8936  -3.9426  -3.7016  -2.7555
    -2.7000  -1.7666  -0.9827  -0.6286   1.8043   3.0429   3.8599   4.2410
     4.3151

          k = 0.1250-0.2165 0.0000 (  5494 PWs)   bands (ev):

   -55.0341 -54.9800 -31.5191 -31.3253 -31.2468 -31.1611 -31.1590 -31.1128
   -19.1840 -19.1737  -8.9760  -7.1928  -6.7789  -3.4194  -3.0639  -2.6519
    -2.5297  -1.1704  -1.0613  -0.2875   2.2194   2.4803   3.0519   3.2071
     3.7638

          k = 0.1250-0.0722 0.0000 (  5490 PWs)   bands (ev):

   -55.0514 -54.9888 -31.5531 -31.2476 -31.1531 -31.1444 -31.1327 -31.0855
   -19.2805 -19.2616  -9.3605  -7.3731  -6.6114  -2.8995  -2.7795  -2.6583
    -2.4211  -1.4021  -0.3532   0.1553   2.2226   2.4332   2.5927   2.9096
     3.0501

          k = 0.2500 0.1443 0.0000 (  5504 PWs)   bands (ev):

   -55.0267 -54.9766 -31.5085 -31.3781 -31.2620 -31.1871 -31.1677 -31.1054
   -19.1446 -19.1375  -8.8130  -7.1341  -6.8206  -3.6346  -3.2477  -2.6540
    -2.5302  -1.4225  -1.0903  -0.0992   1.5181   3.1257   3.2878   3.5480
     3.7985

          k = 0.2500 0.2887 0.0000 (  5536 PWs)   bands (ev):

   -55.0079 -54.9692 -31.5000 -31.4425 -31.3268 -31.2225 -31.1778 -31.1429
   -19.0508 -19.0488  -8.3939  -6.9996  -6.8919  -3.9411  -3.7017  -2.7544
    -2.6994  -1.7699  -0.9875  -0.6285   1.7992   3.0446   3.8623   4.2422
     4.3162

          k = 0.2500 0.4330 0.0000 (  5528 PWs)   bands (ev):

   -54.9865 -54.9642 -31.5096 -31.4751 -31.3633 -31.2467 -31.2463 -31.1746
   -18.9594 -18.9577  -7.9603  -6.8872  -6.8684  -4.0596  -4.0548  -3.1061
    -3.0879  -1.9230  -1.2760  -0.8406   2.6849   2.8240   4.1378   4.5286
     4.6369

          k = 0.2500 0.5773 0.0000 (  5492 PWs)   bands (ev):

   -54.9745 -54.9653 -31.5114 -31.4733 -31.3956 -31.2923 -31.2262 -31.2005
   -18.9216 -18.9197  -7.7988  -6.8308  -6.8132  -4.1192  -4.0610  -3.4306
    -3.2824  -1.8915  -1.5176  -0.8110   2.6692   3.6887   4.0174   4.3334
     4.6771

          k = 0.2500-0.4330 0.0000 (  5528 PWs)   bands (ev):

   -54.9866 -54.9641 -31.5093 -31.4746 -31.3637 -31.2472 -31.2469 -31.1738
   -18.9594 -18.9576  -7.9608  -6.8873  -6.8685  -4.0598  -4.0552  -3.1064
    -3.0880  -1.9199  -1.2758  -0.8396   2.6866   2.8259   4.1364   4.5276
     4.6374

          k = 0.2500-0.2887 0.0000 (  5536 PWs)   bands (ev):

   -55.0080 -54.9691 -31.4998 -31.4420 -31.3271 -31.2231 -31.1778 -31.1426
   -19.0508 -19.0488  -8.3938  -6.9995  -6.8930  -3.9416  -3.7021  -2.7553
    -2.6996  -1.7667  -0.9841  -0.6279   1.8019   3.0451   3.8602   4.2404
     4.3151

          k = 0.2500-0.1443 0.0000 (  5504 PWs)   bands (ev):

   -55.0267 -54.9766 -31.5085 -31.3777 -31.2619 -31.1875 -31.1676 -31.1056
   -19.1446 -19.1375  -8.8127  -7.1340  -6.8216  -3.6349  -3.2473  -2.6545
    -2.5314  -1.4213  -1.0879  -0.0968   1.5203   3.1239   3.2873   3.5476
     3.7974

          k = 0.2500 0.0000 0.0000 (  5494 PWs)   bands (ev):

   -55.0341 -54.9800 -31.5191 -31.3255 -31.2467 -31.1611 -31.1589 -31.1130
   -19.1840 -19.1738  -8.9763  -7.1926  -6.7778  -3.4197  -3.0627  -2.6494
    -2.5319  -1.1729  -1.0611  -0.2890   2.2179   2.4784   3.0522   3.2074
     3.7655

          k = 0.3750 0.2165 0.0000 (  5538 PWs)   bands (ev):

   -54.9995 -54.9667 -31.5409 -31.4887 -31.3222 -31.2273 -31.1865 -31.1278
   -19.0139 -19.0115  -8.2374  -6.9867  -6.8280  -4.2745  -3.9758  -2.7488
    -2.6353  -1.9809  -0.9088  -0.1511   0.9078   3.9585   4.2188   4.3396
     4.4648

          k = 0.3750 0.3608 0.0000 (  5528 PWs)   bands (ev):

   -54.9864 -54.9643 -31.5599 -31.5015 -31.3132 -31.2791 -31.1914 -31.1671
   -18.9609 -18.9576  -7.9909  -6.9031  -6.8000  -4.4097  -4.1550  -2.9307
    -2.8771  -2.0211  -0.8648  -0.7944   1.5217   3.8998   4.2061   4.5800
     4.8591

          k = 0.3750 0.5052 0.0000 (  5492 PWs)   bands (ev):

   -54.9744 -54.9653 -31.5114 -31.4735 -31.3955 -31.2920 -31.2259 -31.2010
   -18.9216 -18.9197  -7.7987  -6.8311  -6.8126  -4.1174  -4.0611  -3.4295
    -3.2829  -1.8951  -1.5164  -0.8124   2.6641   3.6912   4.0190   4.3316
     4.6770

          k = 0.3750 0.6495 0.0000 (  5492 PWs)   bands (ev):

   -54.9746 -54.9652 -31.5112 -31.4731 -31.3958 -31.2927 -31.2264 -31.2001
   -18.9216 -18.9197  -7.7989  -6.8310  -6.8129  -4.1182  -4.0610  -3.4302
    -3.2828  -1.8915  -1.5177  -0.8112   2.6671   3.6908   4.0170   4.3306
     4.6771

          k = 0.3750-0.3608 0.0000 (  5528 PWs)   bands (ev):

   -54.9866 -54.9641 -31.5597 -31.5009 -31.3139 -31.2799 -31.1910 -31.1670
   -18.9608 -18.9576  -7.9910  -6.9029  -6.8011  -4.4113  -4.1551  -2.9315
    -2.8777  -2.0163  -0.8606  -0.7944   1.5246   3.8992   4.2034   4.5784
     4.8597

          k = 0.3750-0.2165 0.0000 (  5538 PWs)   bands (ev):

   -54.9996 -54.9665 -31.5408 -31.4881 -31.3229 -31.2277 -31.1860 -31.1280
   -19.0139 -19.0115  -8.2371  -6.9866  -6.8296  -4.2760  -3.9757  -2.7496
    -2.6363  -1.9767  -0.9053  -0.1482   0.9094   3.9547   4.2191   4.3364
     4.4632

          k = 0.3750-0.0722 0.0000 (  5536 PWs)   bands (ev):

   -55.0079 -54.9691 -31.4999 -31.4421 -31.3271 -31.2230 -31.1775 -31.1430
   -19.0509 -19.0488  -8.3939  -6.9992  -6.8925  -3.9417  -3.7010  -2.7546
    -2.7014  -1.7669  -0.9856  -0.6280   1.8021   3.0412   3.8588   4.2400
     4.3166

          k = 0.3750 0.0722 0.0000 (  5536 PWs)   bands (ev):

   -55.0079 -54.9691 -31.4999 -31.4423 -31.3269 -31.2228 -31.1779 -31.1427
   -19.0509 -19.0488  -8.3941  -6.9993  -6.8916  -3.9412  -3.7012  -2.7538
    -2.7007  -1.7688  -0.9865  -0.6298   1.7997   3.0439   3.8599   4.2422
     4.3164

          k =-0.5000-0.2887 0.0000 (  5552 PWs)   bands (ev):

   -54.9864 -54.9644 -31.5945 -31.5247 -31.3067 -31.2435 -31.2023 -31.1375
   -18.9622 -18.9577  -8.0183  -6.9128  -6.7402  -4.6612  -4.2421  -2.8147
    -2.6737  -2.1477  -0.8251  -0.1350   0.6712   4.0757   4.5403   4.9106
     4.9277

          k =-0.5000-0.1443 0.0000 (  5528 PWs)   bands (ev):

   -54.9864 -54.9643 -31.5599 -31.5015 -31.3132 -31.2792 -31.1916 -31.1669
   -18.9609 -18.9576  -7.9909  -6.9030  -6.7999  -4.4100  -4.1549  -2.9293
    -2.8780  -2.0213  -0.8623  -0.7968   1.5221   3.8994   4.2058   4.5784
     4.8578

          k =-0.5000-0.0000 0.0000 (  5528 PWs)   bands (ev):

   -54.9865 -54.9642 -31.5094 -31.4748 -31.3636 -31.2471 -31.2465 -31.1743
   -18.9594 -18.9576  -7.9606  -6.8869  -6.8681  -4.0590  -4.0552  -3.1050
    -3.0882  -1.9228  -1.2758  -0.8410   2.6843   2.8241   4.1355   4.5277
     4.6357

          k =-0.5000 0.1443 0.0000 (  5528 PWs)   bands (ev):

   -54.9866 -54.9641 -31.5597 -31.5009 -31.3139 -31.2798 -31.1907 -31.1673
   -18.9608 -18.9576  -7.9908  -6.9028  -6.8010  -4.4117  -4.1546  -2.9301
    -2.8788  -2.0171  -0.8619  -0.7931   1.5247   3.8974   4.2027   4.5771
     4.8582

          k =-0.5000-0.8660 0.0000 (  5552 PWs)   bands (ev):

   -54.9866 -54.9642 -31.5943 -31.5240 -31.3079 -31.2439 -31.2014 -31.1377
   -18.9621 -18.9577  -8.0182  -6.9123  -6.7419  -4.6635  -4.2420  -2.8155
    -2.6747  -2.1425  -0.8211  -0.1319   0.6726   4.0707   4.5415   4.9096
     4.9269

     the Fermi energy is     2.4782 ev
     (compare with:     2.4782 eV, computed in scf)

     Writing all to output data dir ./tmp/ti2coh2.save/ :
     XML data file, pseudopotentials, collected wavefunctions

     init_run     :      0.82s CPU      0.86s WALL (       1 calls)
     electrons    :     92.37s CPU    123.92s WALL (       1 calls)

     Called by init_run:
     wfcinit      :      0.00s CPU      0.00s WALL (       1 calls)
     potinit      :      0.43s CPU      0.43s WALL (       1 calls)
     hinit0       :      0.28s CPU      0.27s WALL (       1 calls)

     Called by electrons:
     c_bands      :     92.37s CPU    123.91s WALL (       1 calls)
     v_of_rho     :      0.03s CPU      0.03s WALL (       1 calls)
     newd         :      0.10s CPU      0.14s WALL (       1 calls)
     PAW_pot      :      0.19s CPU      0.20s WALL (       1 calls)

     Called by c_bands:
     init_us_2    :      0.02s CPU      0.02s WALL (      34 calls)
     cegterg      :     90.17s CPU    121.14s WALL (     186 calls)

     Called by *egterg:
     cdiaghg      :      4.27s CPU      5.62s WALL (    3420 calls)
     h_psi        :     51.27s CPU     74.35s WALL (    3606 calls)
     s_psi        :      4.35s CPU      4.79s WALL (    3606 calls)
     g_psi        :      0.11s CPU      0.11s WALL (    3386 calls)

     Called by h_psi:
     h_psi:calbec :      8.05s CPU     15.22s WALL (    3606 calls)
     vloc_psi     :     38.68s CPU     53.04s WALL (    3606 calls)
                                        0.00s GPU  (    3606 calls)
     add_vuspsi   :      4.42s CPU      5.97s WALL (    3606 calls)

     General routines
     calbec       :      8.04s CPU     15.22s WALL (    3606 calls)
     fft          :      0.19s CPU      0.18s WALL (      13 calls)
     ffts         :      0.21s CPU      0.20s WALL (       1 calls)
     fftw         :     37.26s CPU     51.55s WALL (   71264 calls)
     interpolate  :      0.21s CPU      0.20s WALL (       1 calls)
     davcio       :      0.01s CPU      0.02s WALL (      68 calls)

     Parallel routines

     PWSCF        :   1m33.33s CPU   2m 5.01s WALL


   This run was terminated on:  16:35:35  22Sep2026            

=------------------------------------------------------------------------------=
   JOB DONE.
=------------------------------------------------------------------------------=
