
     Program PWSCF v.7.5 starts on 24Sep2026 at 13:36:40 

     This program is part of the open-source Quantum ESPRESSO suite
     for quantum simulation of materials; please cite
         "P. Giannozzi et al., J. Phys.:Condens. Matter 21 395502 (2009);
         "P. Giannozzi et al., J. Phys.:Condens. Matter 29 465901 (2017);
         "P. Giannozzi et al., J. Chem. Phys. 152 154105 (2020);
          URL http://www.quantum-espresso.org", 
     in publications or presentations arising from this work. More details at
     http://www.quantum-espresso.org/quote

     Parallel version (MPI), running on     4 processors

     MPI processes distributed on     1 nodes
     6916 MiB available memory on the printing compute node when the environment starts

     Waiting for input...
     Reading input from standard input
Warning: card &IONS ignored

     Current dimensions of program PWSCF are:
     Max number of different atomic species (ntypx) = 10
     Max number of k-points (npk) =  40000
     Max angular momentum in pseudopotentials (lmaxx) =  4
     file Ti.pbe-spn-kjpaw_psl.1.0.0.UPF: wavefunction(s)  3S 3P 3D renormalized
     file C.pbe-n-kjpaw_psl.1.0.0.UPF: wavefunction(s)  2S 2P renormalized
     file O.pbe-n-kjpaw_psl.1.0.0.UPF: wavefunction(s)  2S 2P renormalized
     file H.pbe-kjpaw_psl.1.0.0.UPF: wavefunction(s)  1S renormalized

     Atomic positions and unit cell read from directory:
     ./tmp/ti2coh2.save/


     R & G space division:  proc/nbgrp/npool/nimage =       4
     Subspace diagonalization in iterative solution of the eigenvalue problem:
     a serial algorithm will be used


     Parallelization info
     --------------------
     sticks:   dense  smooth     PW     G-vecs:    dense   smooth      PW
     Min         186      91     30                31254    11049    2206
     Max         187      92     31                31267    11060    2239
     Sum         745     367    121               125043    44215    8867

     Using Slab Decomposition



     bravais-lattice index     =            0
     lattice parameter (alat)  =       5.7603  a.u.
     unit-cell volume          =    1291.6657 (a.u.)^3
     number of atoms/cell      =            7
     number of atomic types    =            4
     number of electrons       =        42.00
     number of Kohn-Sham states=           50
     kinetic-energy cutoff     =      40.0000  Ry
     charge density cutoff     =     320.0000  Ry
     Exchange-correlation= SLA  PW   PBX  PBC
                           (   1   4   3   4   0   0   0)

     celldm(1)=   5.760320  celldm(2)=   0.000000  celldm(3)=   0.000000
     celldm(4)=   0.000000  celldm(5)=   0.000000  celldm(6)=   0.000000

     crystal axes: (cart. coord. in units of alat)
               a(1) = (   1.000000   0.000000   0.000000 )  
               a(2) = (  -0.500002   0.866027   0.000000 )  
               a(3) = (   0.000000   0.000000   7.803309 )  

     reciprocal axes: (cart. coord. in units 2 pi/alat)
               b(1) = (  1.000000  0.577351 -0.000000 )  
               b(2) = (  0.000000  1.154698  0.000000 )  
               b(3) = (  0.000000 -0.000000  0.128151 )  


     PseudoPot. # 1 for Ti read from file:
     ../pseudopotential/Ti.pbe-spn-kjpaw_psl.1.0.0.UPF
     MD5 check sum: 01f69b0d8ba4438b2e03ac6ea4af1c0b
     Pseudo is Projector augmented-wave + core cor, Zval = 12.0
     Generated using &quot;atomic&quot; code by A. Dal Corso  v.6.2.2
     Shape of augmentation charge: PSQ
     Using radial grid of 1177 points,  6 beta functions with: 
                l(1) =   0
                l(2) =   0
                l(3) =   1
                l(4) =   1
                l(5) =   2
                l(6) =   2
     Q(r) pseudized with 0 coefficients 


     PseudoPot. # 2 for C  read from file:
     ../pseudopotential/C.pbe-n-kjpaw_psl.1.0.0.UPF
     MD5 check sum: 5f16ad9a65e90284d1d834d4ab3b0f7d
     Pseudo is Projector augmented-wave + core cor, Zval =  4.0
     Generated using &quot;atomic&quot; code by A. Dal Corso  v.6.3
     Shape of augmentation charge: PSQ
     Using radial grid of 1073 points,  4 beta functions with: 
                l(1) =   0
                l(2) =   0
                l(3) =   1
                l(4) =   1
     Q(r) pseudized with 0 coefficients 


     PseudoPot. # 3 for O  read from file:
     ../pseudopotential/O.pbe-n-kjpaw_psl.1.0.0.UPF
     MD5 check sum: e99d9cef9b487d1ca56f5b95ecd0fd7a
     Pseudo is Projector augmented-wave + core cor, Zval =  6.0
     Generated using &quot;atomic&quot; code by A. Dal Corso  v.6.3
     Shape of augmentation charge: PSQ
     Using radial grid of 1095 points,  4 beta functions with: 
                l(1) =   0
                l(2) =   0
                l(3) =   1
                l(4) =   1
     Q(r) pseudized with 0 coefficients 


     PseudoPot. # 4 for H  read from file:
     ../pseudopotential/H.pbe-kjpaw_psl.1.0.0.UPF
     MD5 check sum: d81a744832360e4a8af0b0b5b123bc2a
     Pseudo is Projector augmented-wave, Zval =  1.0
     Generated using &quot;atomic&quot; code by A. Dal Corso  v.6.3MaX
     Shape of augmentation charge: PSQ
     Using radial grid of  929 points,  2 beta functions with: 
                l(1) =   0
                l(2) =   0
     Q(r) pseudized with 0 coefficients 


     atomic species   valence    mass     pseudopotential
     Ti               12.00    47.86700     Ti( 1.00)
     C                 4.00    12.01100     C ( 1.00)
     O                 6.00    15.99900     O ( 1.00)
     H                 1.00     1.00800     H ( 1.00)

     No symmetry found



   Cartesian axes

     site n.     atom                  positions (alat units)
         1        Ti     tau(   1) = (  -0.1033350   0.5779378   1.0249980  )
         2        Ti     tau(   2) = (   0.3973285   0.2892394   1.7843821  )
         3        C      tau(   3) = (   0.8969638   0.0006040   1.4046691  )
         4        O      tau(   4) = (  -0.1027867   0.5780304   2.2008896  )
         5        O      tau(   5) = (   0.3968948   0.2897217   0.6086130  )
         6        H      tau(   6) = (   0.3970262   0.2932940   0.2887049  )
         7        H      tau(   7) = (  -0.1042237   0.5779512   2.5208202  )

     number of k points=    34
                       cart. coord. in units 2pi/alat
        k(    1) = (   0.0000000   0.0000000   0.0000000), wk =   0.0312500
        k(    2) = (   0.0000000   0.1443373   0.0000000), wk =   0.0625000
        k(    3) = (   0.0000000   0.2886745   0.0000000), wk =   0.0625000
        k(    4) = (   0.0000000   0.4330118   0.0000000), wk =   0.0625000
        k(    5) = (   0.0000000  -0.5773491   0.0000000), wk =   0.0312500
        k(    6) = (   0.1250000   0.0721689   0.0000000), wk =   0.0625000
        k(    7) = (   0.1250000   0.2165061   0.0000000), wk =   0.0625000
        k(    8) = (   0.1250000   0.3608434   0.0000000), wk =   0.0625000
        k(    9) = (   0.1250000   0.5051807   0.0000000), wk =   0.0625000
        k(   10) = (   0.1250000  -0.5051802   0.0000000), wk =   0.0625000
        k(   11) = (   0.1250000  -0.3608429   0.0000000), wk =   0.0625000
        k(   12) = (   0.1250000  -0.2165057   0.0000000), wk =   0.0625000
        k(   13) = (   0.1250000  -0.0721684   0.0000000), wk =   0.0625000
        k(   14) = (   0.2500000   0.1443377   0.0000000), wk =   0.0625000
        k(   15) = (   0.2500000   0.2886750   0.0000000), wk =   0.0625000
        k(   16) = (   0.2500000   0.4330123   0.0000000), wk =   0.0625000
        k(   17) = (   0.2500000   0.5773496   0.0000000), wk =   0.0625000
        k(   18) = (   0.2500000  -0.4330113   0.0000000), wk =   0.0625000
        k(   19) = (   0.2500000  -0.2886741   0.0000000), wk =   0.0625000
        k(   20) = (   0.2500000  -0.1443368   0.0000000), wk =   0.0625000
        k(   21) = (   0.2500000   0.0000005   0.0000000), wk =   0.0625000
        k(   22) = (   0.3750000   0.2165066   0.0000000), wk =   0.0625000
        k(   23) = (   0.3750000   0.3608439   0.0000000), wk =   0.0625000
        k(   24) = (   0.3750000   0.5051812   0.0000000), wk =   0.0625000
        k(   25) = (   0.3750000   0.6495184   0.0000000), wk =   0.0625000
        k(   26) = (   0.3750000  -0.3608425   0.0000000), wk =   0.0625000
        k(   27) = (   0.3750000  -0.2165052   0.0000000), wk =   0.0625000
        k(   28) = (   0.3750000  -0.0721679   0.0000000), wk =   0.0625000
        k(   29) = (   0.3750000   0.0721693   0.0000000), wk =   0.0625000
        k(   30) = (  -0.5000000  -0.2886755   0.0000000), wk =   0.0312500
        k(   31) = (  -0.5000000  -0.1443382   0.0000000), wk =   0.0625000
        k(   32) = (  -0.5000000  -0.0000009   0.0000000), wk =   0.0625000
        k(   33) = (  -0.5000000   0.1443363   0.0000000), wk =   0.0625000
        k(   34) = (  -0.5000000  -0.8660246   0.0000000), wk =   0.0312500

     Dense  grid:   125043 G-vectors     FFT dimensions: (  36,  36, 256)

     Smooth grid:    44215 G-vectors     FFT dimensions: (  24,  24, 192)

     Estimated max dynamical RAM per process >     110.47 MB

     Estimated total dynamical RAM >     441.90 MB

     Check: negative core charge=   -0.000005

     The potential is recalculated from file :
     ./tmp/ti2coh2.save/charge-density


     negative rho (up, down):  8.113E-04 0.000E+00
     Starting wfcs are   34 randomized atomic wfcs +   16 random wfcs
     Checking if some PAW data can be deallocated... 

     Band Structure Calculation
     Davidson diagonalization with overlap

     ethr =  2.38E-11,  avg # of iterations = 52.4

     total cpu time spent up to now is      170.5 secs

     End of band structure calculation

          k = 0.0000 0.0000 0.0000 (  5509 PWs)   bands (ev):

   -55.0613 -54.9943 -31.5744 -31.2119 -31.1250 -31.1243 -31.0789 -31.0787
   -19.3380 -19.3129  -9.5748  -7.4902  -6.4906  -2.6845  -2.6834  -2.3827
    -2.3812  -1.7092   0.3562   0.3576   2.1430   2.3676   2.6107   2.6119
     2.6539   3.6642   4.0637   4.2082   4.2128   4.3375   4.3398   4.8071
     4.8355   6.0796   7.0156   8.6620   8.7073   8.7125   8.7175  10.4929
    10.7715  11.6300  13.1789  15.2696  15.3110  16.0924  17.3143  17.8005
    18.1290  18.1312

          k = 0.0000 0.1443 0.0000 (  5490 PWs)   bands (ev):

   -55.0514 -54.9888 -31.5531 -31.2478 -31.1535 -31.1441 -31.1327 -31.0854
   -19.2805 -19.2616  -9.3604  -7.3731  -6.6116  -2.8988  -2.7799  -2.6590
    -2.4214  -1.4014  -0.3526   0.1547   2.2230   2.4335   2.5925   2.9091
     3.0502   3.9845   4.1153   4.2170   4.3455   4.4437   4.5416   5.2031
     5.2896   6.4719   7.4407   8.3320   8.6575   9.0770   9.2927  10.8229
    11.3264  12.0433  13.3954  14.8450  15.4532  15.5847  16.6657  17.0397
    17.5921  18.0140

          k = 0.0000 0.2887 0.0000 (  5504 PWs)   bands (ev):

   -55.0267 -54.9766 -31.5086 -31.3780 -31.2620 -31.1871 -31.1677 -31.1053
   -19.1446 -19.1375  -8.8123  -7.1341  -6.8225  -3.6358  -3.2465  -2.6554
    -2.5317  -1.4225  -1.0852  -0.0975   1.5221   3.1224   3.2871   3.5472
     3.7980   4.2608   4.5231   4.5638   4.7802   5.0523   5.3471   6.0624
     6.3368   7.3032   7.8388   8.5015   8.6167  10.1170  10.5860  11.5246
    11.8779  12.4694  12.7867  13.9379  14.4744  15.2838  15.5289  15.7131
    15.8405  15.9290

          k = 0.0000 0.4330 0.0000 (  5538 PWs)   bands (ev):

   -54.9995 -54.9666 -31.5410 -31.4884 -31.3226 -31.2274 -31.1863 -31.1278
   -19.0138 -19.0115  -8.2362  -6.9866  -6.8309  -4.2785  -3.9745  -2.7504
    -2.6367  -1.9764  -0.9037  -0.1491   0.9121   3.9550   4.2187   4.3372
     4.4610   4.7998   5.0895   5.0948   5.2906   6.4860   6.6705   6.9424
     7.4406   7.9078   8.2902   8.9863   9.6339   9.8110  10.2970  11.1457
    11.8640  11.9188  12.1630  12.6779  12.9335  13.4377  13.8340  13.9695
    14.8829  15.0205

          k = 0.0000-0.5773 0.0000 (  5552 PWs)   bands (ev):

   -54.9865 -54.9643 -31.5945 -31.5244 -31.3074 -31.2436 -31.2018 -31.1374
   -18.9621 -18.9576  -8.0175  -6.9116  -6.7433  -4.6669  -4.2409  -2.8163
    -2.6751  -2.1416  -0.8198  -0.1330   0.6756   4.0731   4.5408   4.9104
     4.9266   5.2006   5.2934   5.7184   5.9501   7.3355   7.5358   7.6348
     7.7162   8.1724   8.9824   8.9915   9.2485   9.3833  10.0768  10.1237
    10.6735  11.2256  11.4665  12.4061  12.5247  13.1484  13.1988  13.8982
    13.9130  14.7948

          k = 0.1250 0.0722 0.0000 (  5490 PWs)   bands (ev):

   -55.0514 -54.9888 -31.5530 -31.2478 -31.1537 -31.1440 -31.1325 -31.0854
   -19.2805 -19.2616  -9.3605  -7.3731  -6.6111  -2.9002  -2.7797  -2.6579
    -2.4201  -1.4030  -0.3525   0.1536   2.2195   2.4344   2.5923   2.9101
     3.0523   3.9847   4.1157   4.2188   4.3447   4.4420   4.5426   5.2030
     5.2899   6.4717   7.4410   8.3300   8.6587   9.0774   9.2926  10.8224
    11.3271  12.0441  13.3959  14.8453  15.4542  15.5826  16.6549  17.0469
    17.5951  18.0131

          k = 0.1250 0.2165 0.0000 (  5494 PWs)   bands (ev):

   -55.0341 -54.9800 -31.5191 -31.3258 -31.2467 -31.1611 -31.1586 -31.1129
   -19.1840 -19.1738  -8.9761  -7.1927  -6.7783  -3.4197  -3.0636  -2.6510
    -2.5297  -1.1723  -1.0621  -0.2887   2.2195   2.4770   3.0528   3.2073
     3.7656   4.2488   4.4356   4.4554   4.5468   4.7998   5.0726   5.9234
     5.9271   7.1076   7.9167   8.3223   8.3598   9.8402  10.2159  11.4174
    11.9540  12.5076  13.3832  14.4558  14.7796  15.1823  15.3164  16.1283
    16.1902  17.2408

          k = 0.1250 0.3608 0.0000 (  5536 PWs)   bands (ev):

   -55.0079 -54.9692 -31.5000 -31.4424 -31.3270 -31.2227 -31.1775 -31.1430
   -19.0508 -19.0488  -8.3933  -6.9994  -6.8935  -3.9426  -3.7010  -2.7554
    -2.7005  -1.7678  -0.9852  -0.6275   1.8040   3.0396   3.8609   4.2407
     4.3163   4.6629   4.7234   4.8915   5.1758   6.0223   6.1943   6.7438
     7.2001   7.4919   7.9466   8.5376   9.5733  10.9983  11.0964  11.1474
    11.5349  12.5792  13.2542  13.2933  13.7286  13.9584  14.1155  14.8164
    14.8912  15.3325

          k = 0.1250 0.5052 0.0000 (  5528 PWs)   bands (ev):

   -54.9865 -54.9642 -31.5600 -31.5012 -31.3136 -31.2794 -31.1909 -31.1673
   -18.9608 -18.9576  -7.9902  -6.9026  -6.8021  -4.4140  -4.1541  -2.9313
    -2.8784  -2.0165  -0.8629  -0.7917   1.5268   3.8965   4.2052   4.5780
     4.8588   4.9970   5.3656   5.8415   6.1851   7.0036   7.2216   7.7936
     7.9999   8.3922   8.6655   8.8259   9.2172  10.2183  10.6249  10.8469
    11.3853  11.6370  11.7169  12.5898  12.6377  12.9879  13.0820  13.9354
    14.0843  14.5656

          k = 0.1250-0.5052 0.0000 (  5528 PWs)   bands (ev):

   -54.9865 -54.9642 -31.5599 -31.5011 -31.3136 -31.2795 -31.1914 -31.1667
   -18.9608 -18.9576  -7.9904  -6.9026  -6.8020  -4.4139  -4.1544  -2.9314
    -2.8782  -2.0159  -0.8590  -0.7955   1.5271   3.8979   4.2056   4.5777
     4.8591   4.9988   5.3626   5.8406   6.1847   7.0027   7.2207   7.7930
     7.9996   8.3924   8.6657   8.8264   9.2171  10.2183  10.6250  10.8471
    11.3859  11.6369  11.7163  12.5922  12.6358  12.9883  13.0825  13.9364
    14.0832  14.5664

          k = 0.1250-0.3608 0.0000 (  5536 PWs)   bands (ev):

   -55.0079 -54.9691 -31.4999 -31.4421 -31.3270 -31.2230 -31.1780 -31.1425
   -19.0508 -19.0488  -8.3935  -6.9995  -6.8936  -3.9426  -3.7016  -2.7555
    -2.7000  -1.7666  -0.9827  -0.6286   1.8043   3.0429   3.8599   4.2410
     4.3151   4.6606   4.7228   4.8944   5.1735   6.0221   6.1936   6.7430
     7.1990   7.4909   7.9465   8.5368   9.5735  10.9998  11.0956  11.1471
    11.5360  12.5790  13.2547  13.2940  13.7294  13.9576  14.1164  14.8162
    14.8920  15.3323

          k = 0.1250-0.2165 0.0000 (  5494 PWs)   bands (ev):

   -55.0341 -54.9800 -31.5191 -31.3253 -31.2468 -31.1611 -31.1590 -31.1128
   -19.1840 -19.1737  -8.9760  -7.1928  -6.7789  -3.4194  -3.0639  -2.6519
    -2.5297  -1.1704  -1.0613  -0.2875   2.2194   2.4803   3.0519   3.2071
     3.7638   4.2438   4.4350   4.4551   4.5503   4.7991   5.0730   5.9230
     5.9269   7.1075   7.9178   8.3239   8.3557   9.8403  10.2162  11.4177
    11.9536  12.5075  13.3832  14.4567  14.7774  15.1843  15.3171  16.1303
    16.1896  17.2424

          k = 0.1250-0.0722 0.0000 (  5490 PWs)   bands (ev):

   -55.0514 -54.9888 -31.5531 -31.2476 -31.1531 -31.1444 -31.1327 -31.0855
   -19.2805 -19.2616  -9.3605  -7.3731  -6.6114  -2.8995  -2.7795  -2.6583
    -2.4211  -1.4021  -0.3532   0.1553   2.2226   2.4332   2.5927   2.9096
     3.0501   3.9846   4.1142   4.2168   4.3470   4.4424   4.5425   5.2028
     5.2901   6.4717   7.4408   8.3336   8.6541   9.0777   9.2931  10.8227
    11.3269  12.0436  13.3957  14.8457  15.4534  15.5836  16.6589  17.0455
    17.5932  18.0136

          k = 0.2500 0.1443 0.0000 (  5504 PWs)   bands (ev):

   -55.0267 -54.9766 -31.5085 -31.3781 -31.2620 -31.1871 -31.1677 -31.1054
   -19.1446 -19.1375  -8.8130  -7.1341  -6.8206  -3.6346  -3.2477  -2.6540
    -2.5302  -1.4225  -1.0903  -0.0992   1.5181   3.1257   3.2878   3.5480
     3.7985   4.2624   4.5254   4.5642   4.7778   5.0524   5.3471   6.0630
     6.3370   7.3027   7.8386   8.5028   8.6162  10.1175  10.5868  11.5196
    11.8799  12.4831  12.7748  13.9444  14.4712  15.2812  15.5279  15.7176
    15.8359  15.9218

          k = 0.2500 0.2887 0.0000 (  5536 PWs)   bands (ev):

   -55.0079 -54.9692 -31.5000 -31.4425 -31.3268 -31.2225 -31.1778 -31.1429
   -19.0508 -19.0488  -8.3939  -6.9996  -6.8919  -3.9411  -3.7017  -2.7544
    -2.6994  -1.7699  -0.9875  -0.6285   1.7992   3.0446   3.8623   4.2422
     4.3162   4.6625   4.7228   4.8923   5.1750   6.0225   6.1939   6.7460
     7.1988   7.4918   7.9474   8.5379   9.5728  11.0096  11.0877  11.1445
    11.5333  12.5810  13.2523  13.2989  13.7257  13.9588  14.1163  14.8153
    14.8909  15.3310

          k = 0.2500 0.4330 0.0000 (  5528 PWs)   bands (ev):

   -54.9865 -54.9642 -31.5096 -31.4751 -31.3633 -31.2467 -31.2463 -31.1746
   -18.9594 -18.9577  -7.9603  -6.8872  -6.8684  -4.0596  -4.0548  -3.1061
    -3.0879  -1.9230  -1.2760  -0.8406   2.6849   2.8240   4.1378   4.5286
     4.6369   4.9951   5.4275   5.7840   6.3123   7.1483   7.2135   7.2963
     7.6631   8.1721   8.7677   9.8224  10.1268  10.3104  11.1987  11.2296
    11.2317  12.4408  12.5549  12.8929  12.9285  13.1013  13.1565  13.6396
    13.8852  13.8985

          k = 0.2500 0.5773 0.0000 (  5492 PWs)   bands (ev):

   -54.9745 -54.9653 -31.5114 -31.4733 -31.3956 -31.2923 -31.2262 -31.2005
   -18.9216 -18.9197  -7.7988  -6.8308  -6.8132  -4.1192  -4.0610  -3.4306
    -3.2824  -1.8915  -1.5176  -0.8110   2.6692   3.6887   4.0174   4.3334
     4.6771   4.8401   5.9894   6.4345   7.0785   7.3890   7.8570   7.8657
     8.5598   8.5837   9.9065   9.9517  10.1745  10.2963  10.6101  10.6294
    11.0682  11.1210  11.9538  12.1501  12.5672  12.8029  12.8115  13.3421
    13.4502  13.5840

          k = 0.2500-0.4330 0.0000 (  5528 PWs)   bands (ev):

   -54.9866 -54.9641 -31.5093 -31.4746 -31.3637 -31.2472 -31.2469 -31.1738
   -18.9594 -18.9576  -7.9608  -6.8873  -6.8685  -4.0598  -4.0552  -3.1064
    -3.0880  -1.9199  -1.2758  -0.8396   2.6866   2.8259   4.1364   4.5276
     4.6374   4.9968   5.4247   5.7831   6.3117   7.1448   7.2117   7.2938
     7.6631   8.1719   8.7678   9.8231  10.1276  10.3111  11.1971  11.2295
    11.2327  12.4422  12.5579  12.8933  12.9274  13.1028  13.1555  13.6404
    13.8866  13.8975

          k = 0.2500-0.2887 0.0000 (  5536 PWs)   bands (ev):

   -55.0080 -54.9691 -31.4998 -31.4420 -31.3271 -31.2231 -31.1778 -31.1426
   -19.0508 -19.0488  -8.3938  -6.9995  -6.8930  -3.9416  -3.7021  -2.7553
    -2.6996  -1.7667  -0.9841  -0.6279   1.8019   3.0451   3.8602   4.2404
     4.3151   4.6601   4.7235   4.8941   5.1736   6.0221   6.1933   6.7441
     7.1985   7.4929   7.9437   8.5368   9.5733  11.0066  11.0907  11.1454
    11.5351  12.5806  13.2533  13.2970  13.7278  13.9580  14.1168  14.8154
    14.8914  15.3315

          k = 0.2500-0.1443 0.0000 (  5504 PWs)   bands (ev):

   -55.0267 -54.9766 -31.5085 -31.3777 -31.2619 -31.1875 -31.1676 -31.1056
   -19.1446 -19.1375  -8.8127  -7.1340  -6.8216  -3.6349  -3.2473  -2.6545
    -2.5314  -1.4213  -1.0879  -0.0968   1.5203   3.1239   3.2873   3.5476
     3.7974   4.2589   4.5244   4.5637   4.7805   5.0523   5.3471   6.0625
     6.3370   7.3033   7.8404   8.4979   8.6168  10.1177  10.5867  11.5218
    11.8793  12.4780  12.7797  13.9409  14.4723  15.2830  15.5284  15.7161
    15.8379  15.9249

          k = 0.2500 0.0000 0.0000 (  5494 PWs)   bands (ev):

   -55.0341 -54.9800 -31.5191 -31.3255 -31.2467 -31.1611 -31.1589 -31.1130
   -19.1840 -19.1738  -8.9763  -7.1926  -6.7778  -3.4197  -3.0627  -2.6494
    -2.5319  -1.1729  -1.0611  -0.2890   2.2179   2.4784   3.0522   3.2074
     3.7655   4.2465   4.4387   4.4538   4.5478   4.7992   5.0730   5.9235
     5.9276   7.1069   7.9180   8.3223   8.3572   9.8406  10.2162  11.4177
    11.9550  12.5081  13.3840  14.4557  14.7819  15.1787  15.3161  16.1257
    16.1921  17.2410

          k = 0.3750 0.2165 0.0000 (  5538 PWs)   bands (ev):

   -54.9995 -54.9667 -31.5409 -31.4887 -31.3222 -31.2273 -31.1865 -31.1278
   -19.0139 -19.0115  -8.2374  -6.9867  -6.8280  -4.2745  -3.9758  -2.7488
    -2.6353  -1.9809  -0.9088  -0.1511   0.9078   3.9585   4.2188   4.3396
     4.4648   4.7999   5.0877   5.0945   5.2904   6.4886   6.6703   6.9449
     7.4407   7.9066   8.2920   8.9880   9.6291   9.8123  10.2979  11.1431
    11.8628  11.9196  12.1630  12.6787  12.9353  13.4461  13.8281  13.9734
    14.8779  15.0186

          k = 0.3750 0.3608 0.0000 (  5528 PWs)   bands (ev):

   -54.9864 -54.9643 -31.5599 -31.5015 -31.3132 -31.2791 -31.1914 -31.1671
   -18.9609 -18.9576  -7.9909  -6.9031  -6.8000  -4.4097  -4.1550  -2.9307
    -2.8771  -2.0211  -0.8648  -0.7944   1.5217   3.8998   4.2061   4.5800
     4.8591   4.9975   5.3647   5.8440   6.1884   7.0032   7.2234   7.7945
     7.9987   8.3936   8.6624   8.8269   9.2178  10.2179  10.6257  10.8438
    11.3874  11.6419  11.7072  12.5904  12.6430  12.9840  13.0869  13.9370
    14.0791  14.5636

          k = 0.3750 0.5052 0.0000 (  5492 PWs)   bands (ev):

   -54.9744 -54.9653 -31.5114 -31.4735 -31.3955 -31.2920 -31.2259 -31.2010
   -18.9216 -18.9197  -7.7987  -6.8311  -6.8126  -4.1174  -4.0611  -3.4295
    -3.2829  -1.8951  -1.5164  -0.8124   2.6641   3.6912   4.0190   4.3316
     4.6770   4.8408   5.9889   6.4401   7.0772   7.3990   7.8518   7.8641
     8.5598   8.5835   9.9089   9.9465  10.1825  10.2871  10.6150  10.6266
    11.0710  11.1186  11.9572  12.1447  12.5673  12.8038  12.8115  13.3473
    13.4455  13.5825

          k = 0.3750 0.6495 0.0000 (  5492 PWs)   bands (ev):

   -54.9746 -54.9652 -31.5112 -31.4731 -31.3958 -31.2927 -31.2264 -31.2001
   -18.9216 -18.9197  -7.7989  -6.8310  -6.8129  -4.1182  -4.0610  -3.4302
    -3.2828  -1.8915  -1.5177  -0.8112   2.6671   3.6908   4.0170   4.3306
     4.6771   4.8414   5.9885   6.4383   7.0761   7.3937   7.8539   7.8646
     8.5599   8.5835   9.9085   9.9484  10.1793  10.2904  10.6132  10.6276
    11.0702  11.1192  11.9569  12.1466  12.5676  12.8033  12.8137  13.3454
    13.4478  13.5836

          k = 0.3750-0.3608 0.0000 (  5528 PWs)   bands (ev):

   -54.9866 -54.9641 -31.5597 -31.5009 -31.3139 -31.2799 -31.1910 -31.1670
   -18.9608 -18.9576  -7.9910  -6.9029  -6.8011  -4.4113  -4.1551  -2.9315
    -2.8777  -2.0163  -0.8606  -0.7944   1.5246   3.8992   4.2034   4.5784
     4.8597   4.9991   5.3627   5.8424   6.1857   7.0028   7.2213   7.7898
     7.9988   8.3931   8.6639   8.8271   9.2175  10.2182  10.6256  10.8454
    11.3883  11.6401  11.7114  12.5924  12.6393  12.9859  13.0853  13.9373
    14.0804  14.5646

          k = 0.3750-0.2165 0.0000 (  5538 PWs)   bands (ev):

   -54.9996 -54.9665 -31.5408 -31.4881 -31.3229 -31.2277 -31.1860 -31.1280
   -19.0139 -19.0115  -8.2371  -6.9866  -6.8296  -4.2760  -3.9757  -2.7496
    -2.6363  -1.9767  -0.9053  -0.1482   0.9094   3.9547   4.2191   4.3364
     4.4632   4.7992   5.0902   5.0943   5.2900   6.4869   6.6706   6.9437
     7.4412   7.9072   8.2864   8.9877   9.6313   9.8119  10.2976  11.1460
    11.8634  11.9192  12.1630  12.6789  12.9349  13.4418  13.8300  13.9716
    14.8815  15.0192

          k = 0.3750-0.0722 0.0000 (  5536 PWs)   bands (ev):

   -55.0079 -54.9691 -31.4999 -31.4421 -31.3271 -31.2230 -31.1775 -31.1430
   -19.0509 -19.0488  -8.3939  -6.9992  -6.8925  -3.9417  -3.7010  -2.7546
    -2.7014  -1.7669  -0.9856  -0.6280   1.8021   3.0412   3.8588   4.2400
     4.3166   4.6621   4.7243   4.8926   5.1751   6.0225   6.1948   6.7447
     7.2002   7.4929   7.9439   8.5375   9.5734  11.0039  11.0929  11.1458
    11.5346  12.5824  13.2522  13.2963  13.7268  13.9601  14.1147  14.8164
    14.8901  15.3325

          k = 0.3750 0.0722 0.0000 (  5536 PWs)   bands (ev):

   -55.0079 -54.9691 -31.4999 -31.4423 -31.3269 -31.2228 -31.1779 -31.1427
   -19.0509 -19.0488  -8.3941  -6.9993  -6.8916  -3.9412  -3.7012  -2.7538
    -2.7007  -1.7688  -0.9865  -0.6298   1.7997   3.0439   3.8599   4.2422
     4.3164   4.6621   4.7229   4.8937   5.1743   6.0227   6.1947   6.7459
     7.1994   7.4908   7.9475   8.5379   9.5731  11.0083  11.0890  11.1446
    11.5339  12.5826  13.2517  13.2989  13.7255  13.9601  14.1151  14.8161
    14.8903  15.3318

          k =-0.5000-0.2887 0.0000 (  5552 PWs)   bands (ev):

   -54.9864 -54.9644 -31.5945 -31.5247 -31.3067 -31.2435 -31.2023 -31.1375
   -18.9622 -18.9577  -8.0183  -6.9128  -6.7402  -4.6612  -4.2421  -2.8147
    -2.6737  -2.1477  -0.8251  -0.1350   0.6712   4.0757   4.5403   4.9106
     4.9277   5.1990   5.2938   5.7266   5.9576   7.3263   7.5265   7.6407
     7.7246   8.1745   8.9848   8.9878   9.2544   9.3768  10.0829  10.1181
    10.6725  11.2189  11.4714  12.4107  12.5164  13.1531  13.2073  13.8917
    13.9195  14.7846

          k =-0.5000-0.1443 0.0000 (  5528 PWs)   bands (ev):

   -54.9864 -54.9643 -31.5599 -31.5015 -31.3132 -31.2792 -31.1916 -31.1669
   -18.9609 -18.9576  -7.9909  -6.9030  -6.7999  -4.4100  -4.1549  -2.9293
    -2.8780  -2.0213  -0.8623  -0.7968   1.5221   3.8994   4.2058   4.5784
     4.8578   4.9982   5.3650   5.8450   6.1885   7.0033   7.2239   7.7946
     7.9990   8.3931   8.6626   8.8264   9.2178  10.2177  10.6256  10.8440
    11.3875  11.6420  11.7082  12.5868  12.6460  12.9840  13.0868  13.9360
    14.0814  14.5633

          k =-0.5000-0.0000 0.0000 (  5528 PWs)   bands (ev):

   -54.9865 -54.9642 -31.5094 -31.4748 -31.3636 -31.2471 -31.2465 -31.1743
   -18.9594 -18.9576  -7.9606  -6.8869  -6.8681  -4.0590  -4.0552  -3.1050
    -3.0882  -1.9228  -1.2758  -0.8410   2.6843   2.8241   4.1355   4.5277
     4.6357   4.9962   5.4274   5.7855   6.3122   7.1482   7.2143   7.2975
     7.6630   8.1719   8.7679   9.8218  10.1262  10.3092  11.2012  11.2295
    11.2304  12.4401  12.5569  12.8914  12.9307  13.0991  13.1584  13.6406
    13.8830  13.9009

          k =-0.5000 0.1443 0.0000 (  5528 PWs)   bands (ev):

   -54.9866 -54.9641 -31.5597 -31.5009 -31.3139 -31.2798 -31.1907 -31.1673
   -18.9608 -18.9576  -7.9908  -6.9028  -6.8010  -4.4117  -4.1546  -2.9301
    -2.8788  -2.0171  -0.8619  -0.7931   1.5247   3.8974   4.2027   4.5771
     4.8582   4.9980   5.3661   5.8442   6.1862   7.0039   7.2227   7.7905
     7.9995   8.3925   8.6640   8.8260   9.2176  10.2181  10.6254  10.8454
    11.3878  11.6403  11.7130  12.5863  12.6441  12.9855  13.0846  13.9353
    14.0838  14.5635

          k =-0.5000-0.8660 0.0000 (  5552 PWs)   bands (ev):

   -54.9866 -54.9642 -31.5943 -31.5240 -31.3079 -31.2439 -31.2014 -31.1377
   -18.9621 -18.9577  -8.0182  -6.9123  -6.7419  -4.6635  -4.2420  -2.8155
    -2.6747  -2.1425  -0.8211  -0.1319   0.6726   4.0707   4.5415   4.9096
     4.9269   5.2009   5.2937   5.7232   5.9523   7.3303   7.5301   7.6383
     7.7208   8.1684   8.9843   8.9890   9.2524   9.3791  10.0810  10.1200
    10.6757  11.2212  11.4706  12.4092  12.5196  13.1513  13.2022  13.8946
    13.9172  14.7912

     highest occupied, lowest unoccupied level (ev):     2.6866    2.3676

     Writing all to output data dir ./tmp/ti2coh2.save/ :
     XML data file, pseudopotentials, collected wavefunctions

     init_run     :      0.83s CPU      0.97s WALL (       1 calls)
     electrons    :    131.61s CPU    169.35s WALL (       1 calls)

     Called by init_run:
     wfcinit      :      0.00s CPU      0.00s WALL (       1 calls)
     potinit      :      0.42s CPU      0.47s WALL (       1 calls)
     hinit0       :      0.28s CPU      0.30s WALL (       1 calls)

     Called by electrons:
     c_bands      :    131.61s CPU    169.35s WALL (       1 calls)
     v_of_rho     :      0.03s CPU      0.03s WALL (       1 calls)
     newd         :      0.10s CPU      0.17s WALL (       1 calls)
     PAW_pot      :      0.17s CPU      0.21s WALL (       1 calls)

     Called by c_bands:
     init_us_2    :      0.02s CPU      0.03s WALL (      34 calls)
     cegterg      :    128.08s CPU    164.26s WALL (     102 calls)

     Called by *egterg:
     cdiaghg      :      8.51s CPU     10.89s WALL (    1814 calls)
     h_psi        :     61.15s CPU     83.45s WALL (    1916 calls)
     s_psi        :      4.78s CPU      5.65s WALL (    1916 calls)
     g_psi        :      0.13s CPU      0.14s WALL (    1780 calls)

     Called by h_psi:
     h_psi:calbec :      8.19s CPU     10.26s WALL (    1916 calls)
     vloc_psi     :     47.69s CPU     67.05s WALL (    1916 calls)
                                        0.00s GPU  (    1916 calls)
     add_vuspsi   :      5.10s CPU      5.96s WALL (    1916 calls)

     General routines
     calbec       :      8.18s CPU     10.25s WALL (    1916 calls)
     fft          :      0.19s CPU      0.20s WALL (      13 calls)
     ffts         :      0.22s CPU      0.22s WALL (       1 calls)
     fftw         :     46.05s CPU     65.18s WALL (   82390 calls)
     interpolate  :      0.22s CPU      0.22s WALL (       1 calls)
     davcio       :      0.02s CPU      0.07s WALL (      68 calls)

     Parallel routines

     PWSCF        :   2m12.61s CPU   2m50.61s WALL


   This run was terminated on:  13:39:30  24Sep2026            

=------------------------------------------------------------------------------=
   JOB DONE.
=------------------------------------------------------------------------------=
