
     Program PWSCF v.7.5 starts on 22Sep2026 at 14: 4: 0 

     This program is part of the open-source Quantum ESPRESSO suite
     for quantum simulation of materials; please cite
         "P. Giannozzi et al., J. Phys.:Condens. Matter 21 395502 (2009);
         "P. Giannozzi et al., J. Phys.:Condens. Matter 29 465901 (2017);
         "P. Giannozzi et al., J. Chem. Phys. 152 154105 (2020);
          URL http://www.quantum-espresso.org", 
     in publications or presentations arising from this work. More details at
     http://www.quantum-espresso.org/quote

     Parallel version (MPI), running on     8 processors

     MPI processes distributed on     1 nodes
     6549 MiB available memory on the printing compute node when the environment starts

     Waiting for input...
     Reading input from standard input

     Current dimensions of program PWSCF are:
     Max number of different atomic species (ntypx) = 10
     Max number of k-points (npk) =  40000
     Max angular momentum in pseudopotentials (lmaxx) =  4

     File ./tmp/ti2coh2.update deleted, as requested

     File ./tmp/ti2coh2.bfgs deleted, as requested
     file Ti.pbe-spn-kjpaw_psl.1.0.0.UPF: wavefunction(s)  3S 3P 3D renormalized
     file C.pbe-n-kjpaw_psl.1.0.0.UPF: wavefunction(s)  2S 2P renormalized
     file O.pbe-n-kjpaw_psl.1.0.0.UPF: wavefunction(s)  2S 2P renormalized
     file H.pbe-kjpaw_psl.1.0.0.UPF: wavefunction(s)  1S renormalized

     R & G space division:  proc/nbgrp/npool/nimage =       8
     Subspace diagonalization in iterative solution of the eigenvalue problem:
     a serial algorithm will be used


     Parallelization info
     --------------------
     sticks:   dense  smooth     PW     G-vecs:    dense   smooth      PW
     Min          93      45     15                15621     5515    1097
     Max          94      46     16                15636     5536    1132
     Sum         745     367    121               125043    44215    8867

     Using Slab Decomposition



     bravais-lattice index     =            0
     lattice parameter (alat)  =       5.7603  a.u.
     unit-cell volume          =    1291.6657 (a.u.)^3
     number of atoms/cell      =            7
     number of atomic types    =            4
     number of electrons       =        42.00
     number of Kohn-Sham states=           25
     kinetic-energy cutoff     =      40.0000  Ry
     charge density cutoff     =     320.0000  Ry
     scf convergence threshold =      1.0E-08
     mixing beta               =       0.7000
     number of iterations used =            8  plain     mixing
     energy convergence thresh.=      1.0E-04
     force convergence thresh. =      1.0E-03
     Exchange-correlation= SLA  PW   PBX  PBC
                           (   1   4   3   4   0   0   0)
     nstep                     =          250


     celldm(1)=   5.760320  celldm(2)=   0.000000  celldm(3)=   0.000000
     celldm(4)=   0.000000  celldm(5)=   0.000000  celldm(6)=   0.000000

     crystal axes: (cart. coord. in units of alat)
               a(1) = (   1.000000   0.000000   0.000000 )  
               a(2) = (  -0.500002   0.866027   0.000000 )  
               a(3) = (   0.000000   0.000000   7.803309 )  

     reciprocal axes: (cart. coord. in units 2 pi/alat)
               b(1) = (  1.000000  0.577351 -0.000000 )  
               b(2) = (  0.000000  1.154698  0.000000 )  
               b(3) = (  0.000000 -0.000000  0.128151 )  


     PseudoPot. # 1 for Ti read from file:
     ../pseudopotential/Ti.pbe-spn-kjpaw_psl.1.0.0.UPF
     MD5 check sum: 01f69b0d8ba4438b2e03ac6ea4af1c0b
     Pseudo is Projector augmented-wave + core cor, Zval = 12.0
     Generated using &quot;atomic&quot; code by A. Dal Corso  v.6.2.2
     Shape of augmentation charge: PSQ
     Using radial grid of 1177 points,  6 beta functions with: 
                l(1) =   0
                l(2) =   0
                l(3) =   1
                l(4) =   1
                l(5) =   2
                l(6) =   2
     Q(r) pseudized with 0 coefficients 


     PseudoPot. # 2 for C  read from file:
     ../pseudopotential/C.pbe-n-kjpaw_psl.1.0.0.UPF
     MD5 check sum: 5f16ad9a65e90284d1d834d4ab3b0f7d
     Pseudo is Projector augmented-wave + core cor, Zval =  4.0
     Generated using &quot;atomic&quot; code by A. Dal Corso  v.6.3
     Shape of augmentation charge: PSQ
     Using radial grid of 1073 points,  4 beta functions with: 
                l(1) =   0
                l(2) =   0
                l(3) =   1
                l(4) =   1
     Q(r) pseudized with 0 coefficients 


     PseudoPot. # 3 for O  read from file:
     ../pseudopotential/O.pbe-n-kjpaw_psl.1.0.0.UPF
     MD5 check sum: e99d9cef9b487d1ca56f5b95ecd0fd7a
     Pseudo is Projector augmented-wave + core cor, Zval =  6.0
     Generated using &quot;atomic&quot; code by A. Dal Corso  v.6.3
     Shape of augmentation charge: PSQ
     Using radial grid of 1095 points,  4 beta functions with: 
                l(1) =   0
                l(2) =   0
                l(3) =   1
                l(4) =   1
     Q(r) pseudized with 0 coefficients 


     PseudoPot. # 4 for H  read from file:
     ../pseudopotential/H.pbe-kjpaw_psl.1.0.0.UPF
     MD5 check sum: d81a744832360e4a8af0b0b5b123bc2a
     Pseudo is Projector augmented-wave, Zval =  1.0
     Generated using &quot;atomic&quot; code by A. Dal Corso  v.6.3MaX
     Shape of augmentation charge: PSQ
     Using radial grid of  929 points,  2 beta functions with: 
                l(1) =   0
                l(2) =   0
     Q(r) pseudized with 0 coefficients 


     atomic species   valence    mass     pseudopotential
     Ti               12.00    47.86700     Ti( 1.00)
     C                 4.00    12.01100     C ( 1.00)
     O                 6.00    15.99900     O ( 1.00)
     H                 1.00     1.00800     H ( 1.00)

     No symmetry found



   Cartesian axes

     site n.     atom                  positions (alat units)
         1        Ti     tau(   1) = (  -0.1144008   0.5740052   0.9597504  )
         2        Ti     tau(   2) = (   0.3896819   0.2769771   1.8633666  )
         3        C      tau(   3) = (   0.8917503  -0.0124105   1.4187578  )
         4        O      tau(   4) = (   0.1086106   0.7093362   2.5919370  )
         5        O      tau(   5) = (   0.4853505   0.2066904   0.3586606  )
         6        H      tau(   6) = (   0.1448808   0.2431411   0.1892442  )
         7        H      tau(   7) = (  -0.1280054   0.6090387   2.4513603  )

     number of k points=    10  Marzari-Vanderbilt smearing, width (Ry)=  0.0200
                       cart. coord. in units 2pi/alat
        k(    1) = (   0.0000000   0.0000000   0.0000000), wk =   0.1250000
        k(    2) = (   0.0000000   0.2886745   0.0000000), wk =   0.2500000
        k(    3) = (   0.0000000  -0.5773491   0.0000000), wk =   0.1250000
        k(    4) = (   0.2500000   0.1443377   0.0000000), wk =   0.2500000
        k(    5) = (   0.2500000   0.4330123   0.0000000), wk =   0.2500000
        k(    6) = (   0.2500000  -0.4330113   0.0000000), wk =   0.2500000
        k(    7) = (   0.2500000  -0.1443368   0.0000000), wk =   0.2500000
        k(    8) = (  -0.5000000  -0.2886755   0.0000000), wk =   0.1250000
        k(    9) = (  -0.5000000  -0.0000009   0.0000000), wk =   0.2500000
        k(   10) = (  -0.5000000  -0.8660246   0.0000000), wk =   0.1250000

     Dense  grid:   125043 G-vectors     FFT dimensions: (  36,  36, 256)

     Smooth grid:    44215 G-vectors     FFT dimensions: (  24,  24, 192)

     Estimated max dynamical RAM per process >      65.46 MB

     Estimated total dynamical RAM >     523.72 MB

     Check: negative core charge=   -0.000005

     Initial potential from superposition of free atoms

     starting charge      41.9970, renormalised to      42.0000

     negative rho (up, down):  1.970E-03 0.000E+00
     Starting wfcs are   34 randomized atomic wfcs
     Checking if some PAW data can be deallocated... 

     total cpu time spent up to now is        1.2 secs

     Self-consistent Calculation

     iteration #  1     ecut=    40.00 Ry     beta= 0.70
     Davidson diagonalization with overlap
     ethr =  1.00E-02,  avg # of iterations =  2.3

     negative rho (up, down):  1.568E-03 0.000E+00

     total cpu time spent up to now is        2.1 secs

     total energy              =    -469.86455520 Ry
     estimated scf accuracy    <       2.59835585 Ry

     iteration #  2     ecut=    40.00 Ry     beta= 0.70
     Davidson diagonalization with overlap
     ethr =  6.19E-03,  avg # of iterations =  8.6

     negative rho (up, down):  1.300E-02 0.000E+00

     total cpu time spent up to now is        3.7 secs

     total energy              =    -464.01181902 Ry
     estimated scf accuracy    <     151.49552408 Ry

     iteration #  3     ecut=    40.00 Ry     beta= 0.70
     Davidson diagonalization with overlap
     ethr =  6.19E-03,  avg # of iterations = 10.7

     negative rho (up, down):  1.217E-02 0.000E+00

     total cpu time spent up to now is        5.6 secs

     total energy              =    -465.97035437 Ry
     estimated scf accuracy    <     179.90426358 Ry

     iteration #  4     ecut=    40.00 Ry     beta= 0.70
     Davidson diagonalization with overlap
     ethr =  6.19E-03,  avg # of iterations =  7.5

     negative rho (up, down):  3.597E-03 0.000E+00

     total cpu time spent up to now is        6.9 secs

     total energy              =    -470.50585998 Ry
     estimated scf accuracy    <       9.45350095 Ry

     iteration #  5     ecut=    40.00 Ry     beta= 0.70
     Davidson diagonalization with overlap
     ethr =  6.19E-03,  avg # of iterations =  3.0

     negative rho (up, down):  2.169E-03 0.000E+00

     total cpu time spent up to now is        8.0 secs

     total energy              =    -471.46104189 Ry
     estimated scf accuracy    <       0.45222239 Ry

     iteration #  6     ecut=    40.00 Ry     beta= 0.70
     Davidson diagonalization with overlap
     ethr =  1.08E-03,  avg # of iterations =  6.2

     negative rho (up, down):  1.764E-03 0.000E+00

     total cpu time spent up to now is        9.0 secs

     total energy              =    -471.49785297 Ry
     estimated scf accuracy    <       0.26520188 Ry

     iteration #  7     ecut=    40.00 Ry     beta= 0.70
     Davidson diagonalization with overlap
     ethr =  6.31E-04,  avg # of iterations =  3.5

     negative rho (up, down):  1.634E-03 0.000E+00

     total cpu time spent up to now is        9.9 secs

     total energy              =    -471.48848355 Ry
     estimated scf accuracy    <       0.16599232 Ry

     iteration #  8     ecut=    40.00 Ry     beta= 0.70
     Davidson diagonalization with overlap
     ethr =  3.95E-04,  avg # of iterations =  2.9

     negative rho (up, down):  1.979E-03 0.000E+00

     total cpu time spent up to now is       10.8 secs

     total energy              =    -471.48563422 Ry
     estimated scf accuracy    <       0.13065958 Ry

     iteration #  9     ecut=    40.00 Ry     beta= 0.70
     Davidson diagonalization with overlap
     ethr =  3.11E-04,  avg # of iterations =  3.5

     negative rho (up, down):  2.786E-03 0.000E+00

     total cpu time spent up to now is       11.6 secs

     total energy              =    -471.49116572 Ry
     estimated scf accuracy    <       0.01477079 Ry

     iteration # 10     ecut=    40.00 Ry     beta= 0.70
     Davidson diagonalization with overlap
     c_bands:  2 eigenvalues not converged
     c_bands:  2 eigenvalues not converged
     ethr =  3.52E-05,  avg # of iterations = 14.3

     negative rho (up, down):  2.882E-03 0.000E+00

     total cpu time spent up to now is       13.1 secs

     total energy              =    -471.49549012 Ry
     estimated scf accuracy    <       0.00968951 Ry

     iteration # 11     ecut=    40.00 Ry     beta= 0.70
     Davidson diagonalization with overlap
     ethr =  2.31E-05,  avg # of iterations =  3.3

     negative rho (up, down):  2.604E-03 0.000E+00

     total cpu time spent up to now is       14.1 secs

     total energy              =    -471.49491588 Ry
     estimated scf accuracy    <       0.00268099 Ry

     iteration # 12     ecut=    40.00 Ry     beta= 0.70
     Davidson diagonalization with overlap
     c_bands:  1 eigenvalues not converged
     ethr =  6.38E-06,  avg # of iterations =  9.9

     negative rho (up, down):  2.391E-03 0.000E+00

     total cpu time spent up to now is       17.6 secs

     total energy              =    -471.49574871 Ry
     estimated scf accuracy    <       0.00123829 Ry

     iteration # 13     ecut=    40.00 Ry     beta= 0.70
     Davidson diagonalization with overlap
     c_bands:  1 eigenvalues not converged
     ethr =  2.95E-06,  avg # of iterations =  6.8

     negative rho (up, down):  2.271E-03 0.000E+00

     total cpu time spent up to now is       18.6 secs

     total energy              =    -471.49582295 Ry
     estimated scf accuracy    <       0.00250059 Ry

     iteration # 14     ecut=    40.00 Ry     beta= 0.70
     Davidson diagonalization with overlap
     ethr =  2.95E-06,  avg # of iterations =  1.3

     negative rho (up, down):  2.217E-03 0.000E+00

     total cpu time spent up to now is       19.4 secs

     total energy              =    -471.49581461 Ry
     estimated scf accuracy    <       0.00128895 Ry

     iteration # 15     ecut=    40.00 Ry     beta= 0.70
     Davidson diagonalization with overlap
     ethr =  2.95E-06,  avg # of iterations =  1.5

     negative rho (up, down):  2.176E-03 0.000E+00

     total cpu time spent up to now is       20.2 secs

     total energy              =    -471.49583296 Ry
     estimated scf accuracy    <       0.00014024 Ry

     iteration # 16     ecut=    40.00 Ry     beta= 0.70
     Davidson diagonalization with overlap
     ethr =  3.34E-07,  avg # of iterations =  6.9

     negative rho (up, down):  2.178E-03 0.000E+00

     total cpu time spent up to now is       21.3 secs

     total energy              =    -471.49587611 Ry
     estimated scf accuracy    <       0.00002218 Ry

     iteration # 17     ecut=    40.00 Ry     beta= 0.70
     Davidson diagonalization with overlap
     ethr =  5.28E-08,  avg # of iterations =  4.2

     negative rho (up, down):  2.174E-03 0.000E+00

     total cpu time spent up to now is       22.4 secs

     total energy              =    -471.49587850 Ry
     estimated scf accuracy    <       0.00000502 Ry

     iteration # 18     ecut=    40.00 Ry     beta= 0.70
     Davidson diagonalization with overlap
     ethr =  1.19E-08,  avg # of iterations =  6.4

     negative rho (up, down):  2.174E-03 0.000E+00

     total cpu time spent up to now is       23.6 secs

     total energy              =    -471.49587960 Ry
     estimated scf accuracy    <       0.00000111 Ry

     iteration # 19     ecut=    40.00 Ry     beta= 0.70
     Davidson diagonalization with overlap
     ethr =  2.65E-09,  avg # of iterations =  5.6

     negative rho (up, down):  2.171E-03 0.000E+00

     total cpu time spent up to now is       24.6 secs

     total energy              =    -471.49587985 Ry
     estimated scf accuracy    <       0.00000026 Ry

     iteration # 20     ecut=    40.00 Ry     beta= 0.70
     Davidson diagonalization with overlap
     ethr =  6.15E-10,  avg # of iterations =  5.6

     negative rho (up, down):  2.171E-03 0.000E+00

     total cpu time spent up to now is       25.6 secs

     total energy              =    -471.49587992 Ry
     estimated scf accuracy    <       0.00000002 Ry

     iteration # 21     ecut=    40.00 Ry     beta= 0.70
     Davidson diagonalization with overlap
     ethr =  3.98E-11,  avg # of iterations = 10.0

     negative rho (up, down):  2.171E-03 0.000E+00

     total cpu time spent up to now is       27.0 secs

     total energy              =    -471.49587993 Ry
     estimated scf accuracy    <       0.00000002 Ry

     iteration # 22     ecut=    40.00 Ry     beta= 0.70
     Davidson diagonalization with overlap
     ethr =  3.98E-11,  avg # of iterations =  2.0

     negative rho (up, down):  2.171E-03 0.000E+00

     total cpu time spent up to now is       27.8 secs

     End of self-consistent calculation

          k = 0.0000 0.0000 0.0000 (  5509 PWs)   bands (ev):

   -58.9377 -58.5284 -35.2086 -34.9954 -34.9518 -34.7980 -34.5790 -34.5550
   -20.0099 -19.7852 -12.5472  -7.1135  -5.9733  -5.1321  -3.9833  -3.2249
    -2.8810  -2.7391  -2.5541  -1.9205  -1.2177  -0.8183  -0.7985   0.0931
     0.2927

          k = 0.0000 0.2887 0.0000 (  5504 PWs)   bands (ev):

   -58.9146 -58.5052 -35.1827 -35.1485 -34.9998 -34.7770 -34.7396 -34.5989
   -19.7623 -19.5849 -11.8251  -6.7262  -5.5964  -5.1755  -4.5571  -4.3521
    -3.9091  -3.0344  -2.8321  -2.2744  -1.9826  -0.8435  -0.3409  -0.0113
     0.1407

          k = 0.0000-0.5773 0.0000 (  5552 PWs)   bands (ev):

   -58.8915 -58.4819 -35.3219 -35.1414 -35.0395 -34.9069 -34.7512 -34.6356
   -19.4993 -19.3744 -10.9058  -6.6387  -6.2444  -5.6766  -5.2734  -4.6418
    -4.0486  -3.3493  -3.0966  -2.8230  -2.5027  -0.2101   0.3702   0.7469
     1.0334

          k = 0.2500 0.1443 0.0000 (  5504 PWs)   bands (ev):

   -58.9147 -58.5052 -35.1768 -35.1207 -35.0339 -34.7915 -34.7259 -34.5985
   -19.6995 -19.5496 -11.8245  -7.3547  -6.0837  -5.4586  -4.7165  -4.2007
    -3.5059  -2.9590  -2.8021  -1.8433  -1.4667  -1.0549  -0.4814  -0.0373
     0.1307

          k = 0.2500 0.4330 0.0000 (  5528 PWs)   bands (ev):

   -58.8916 -58.4818 -35.2395 -35.1437 -35.1209 -34.8578 -34.7485 -34.6907
   -19.4325 -19.3372 -10.9366  -7.4019  -6.2608  -5.4823  -4.9552  -4.5240
    -4.3775  -4.0794  -2.9971  -2.4687  -1.2957  -0.9085  -0.4963   0.0030
     0.7142

          k = 0.2500-0.4330 0.0000 (  5528 PWs)   bands (ev):

   -58.8915 -58.4819 -35.2679 -35.1417 -35.0947 -34.8323 -34.7615 -34.7023
   -19.4201 -19.3634 -10.9400  -7.5088  -5.7942  -5.4054  -4.8503  -4.5726
    -4.4059  -4.1232  -3.1808  -2.8694  -1.2640  -0.9724  -0.3826   0.0596
     0.7333

          k = 0.2500-0.1443 0.0000 (  5504 PWs)   bands (ev):

   -58.9147 -58.5052 -35.1819 -35.1508 -34.9988 -34.7784 -34.7197 -34.6170
   -19.6889 -19.5734 -11.8284  -7.4074  -5.7620  -5.3732  -4.7520  -4.1419
    -3.5266  -3.0986  -2.6755  -2.0922  -1.8656  -0.9314  -0.4394   0.0313
     0.1520

          k =-0.5000-0.2887 0.0000 (  5552 PWs)   bands (ev):

   -58.8916 -58.4818 -35.2874 -35.1441 -35.0716 -34.9178 -34.7397 -34.6376
   -19.3573 -19.2970 -10.9086  -8.2836  -6.8274  -6.0486  -4.9332  -4.4423
    -3.7872  -3.1194  -2.9716  -2.2410  -1.6661  -0.3065  -0.0719   0.5553
     0.8869

          k =-0.5000-0.0000 0.0000 (  5528 PWs)   bands (ev):

   -58.8916 -58.4819 -35.2379 -35.1455 -35.1210 -34.8456 -34.7397 -34.7114
   -19.3471 -19.3246 -10.9433  -8.2333  -6.4329  -5.3668  -4.7563  -4.4478
    -4.1814  -4.0344  -3.0006  -2.3073  -1.2475  -0.9572  -0.3816   0.0076
     0.6877

          k =-0.5000-0.8660 0.0000 (  5552 PWs)   bands (ev):

   -58.8916 -58.4820 -35.3202 -35.1451 -35.0381 -34.8910 -34.7487 -34.6535
   -19.3495 -19.3325 -10.9164  -8.4210  -6.2769  -5.8166  -4.9745  -4.2713
    -3.8328  -3.2384  -2.8825  -2.7404  -2.2832  -0.2162   0.4526   0.4954
     0.9115

     the Fermi energy is    -1.1204 ev

!    total energy              =    -471.49587993 Ry
     total all-electron energy =     -3794.799569 Ry
     estimated scf accuracy    <          6.5E-09 Ry
     smearing contrib. (-TS)   =      -0.00277054 Ry
     internal energy E=F+TS    =    -471.49310939 Ry

     The total energy is F=E-TS. E is the sum of the following terms:
     one-electron contribution =   -2702.35118376 Ry
     hartree contribution      =    1353.84341615 Ry
     xc contribution           =     -57.49205799 Ry
     ewald contribution        =    1090.49019856 Ry
     one-center paw contrib.   =    -155.98348234 Ry

     convergence has been achieved in  22 iterations

     negative rho (up, down):  2.171E-03 0.000E+00

     Forces acting on atoms (cartesian axes, Ry/au):

     atom    1 type  1   force =    -0.00197622    0.00959626    0.02470411
     atom    2 type  1   force =    -0.00604621   -0.00722609   -0.03099089
     atom    3 type  2   force =     0.00374598    0.00476510   -0.00910797
     atom    4 type  3   force =     0.21553106    0.09362929   -0.04737477
     atom    5 type  3   force =    -0.14468312    0.00525509    0.03677973
     atom    6 type  4   force =     0.14628774   -0.01297287    0.07732945
     atom    7 type  4   force =    -0.21285924   -0.09304678   -0.05133966

     Total force =     0.407190     Total SCF correction =     0.000344

     BFGS Geometry Optimization
     Energy error            =      1.7E-01 Ry
     Gradient error          =      2.2E-01 Ry/Bohr

     number of scf cycles    =   1
     number of bfgs steps    =   0

     energy             new  =    -471.4958799255 Ry

     new trust radius        =       0.2397174419 bohr
     new conv_thr            =       0.0000000100 Ry


ATOMIC_POSITIONS (angstrom)
Ti              -0.3497657690        1.7547781203        2.9386128531
Ti               1.1846404852        0.8404661193        5.6635703247
C                2.7202422867       -0.0353084175        4.3198802705
O                0.4451241278        2.2117664850        7.8757503525
O                1.4028969904        0.6328208730        1.1127429962
H                0.5190421394        0.7342850539        0.6177809815
H               -0.5028302605        1.8072517661        7.4451422214



     Writing config-only to output data dir ./tmp/ti2coh2.save/ :
     XML data file
     NEW-OLD atomic charge density approx. for the potential

     Check: negative core charge=   -0.000005

     negative rho (up, down):  2.238E-03 0.000E+00

     total cpu time spent up to now is       28.5 secs

     Self-consistent Calculation

     iteration #  1     ecut=    40.00 Ry     beta= 0.70
     Davidson diagonalization with overlap
     c_bands:  1 eigenvalues not converged
     c_bands:  4 eigenvalues not converged
     c_bands:  1 eigenvalues not converged
     c_bands:  5 eigenvalues not converged
     c_bands:  2 eigenvalues not converged
     c_bands:  1 eigenvalues not converged
     c_bands:  2 eigenvalues not converged
     c_bands:  2 eigenvalues not converged
     ethr =  1.00E-06,  avg # of iterations = 19.9

     negative rho (up, down):  2.204E-03 0.000E+00

     total cpu time spent up to now is       32.2 secs

     total energy              =    -470.92965131 Ry
     estimated scf accuracy    <       0.74456061 Ry

     iteration #  2     ecut=    40.00 Ry     beta= 0.70
     Davidson diagonalization with overlap
     ethr =  1.77E-03,  avg # of iterations = 10.8

     negative rho (up, down):  3.726E-03 0.000E+00

     total cpu time spent up to now is       34.0 secs

     total energy              =    -463.51566316 Ry
     estimated scf accuracy    <     237.41585083 Ry

     iteration #  3     ecut=    40.00 Ry     beta= 0.70
     Davidson diagonalization with overlap
     ethr =  1.77E-03,  avg # of iterations = 12.8

     negative rho (up, down):  2.958E-03 0.000E+00

     total cpu time spent up to now is       35.8 secs

     total energy              =    -471.09634737 Ry
     estimated scf accuracy    <       8.20711091 Ry

     iteration #  4     ecut=    40.00 Ry     beta= 0.70
     Davidson diagonalization with overlap
     ethr =  1.77E-03,  avg # of iterations =  6.8

     negative rho (up, down):  2.203E-03 0.000E+00

     total cpu time spent up to now is       36.9 secs

     total energy              =    -471.50213659 Ry
     estimated scf accuracy    <       1.30442232 Ry

     iteration #  5     ecut=    40.00 Ry     beta= 0.70
     Davidson diagonalization with overlap
     ethr =  1.77E-03,  avg # of iterations =  1.6

     negative rho (up, down):  1.792E-03 0.000E+00

     total cpu time spent up to now is       37.7 secs

     total energy              =    -471.52529077 Ry
     estimated scf accuracy    <       0.26580268 Ry

     iteration #  6     ecut=    40.00 Ry     beta= 0.70
     Davidson diagonalization with overlap
     ethr =  6.33E-04,  avg # of iterations =  3.1

     negative rho (up, down):  1.780E-03 0.000E+00

     total cpu time spent up to now is       38.6 secs

     total energy              =    -471.53299236 Ry
     estimated scf accuracy    <       0.17843689 Ry

     iteration #  7     ecut=    40.00 Ry     beta= 0.70
     Davidson diagonalization with overlap
     ethr =  4.25E-04,  avg # of iterations =  2.0

     negative rho (up, down):  1.638E-03 0.000E+00

     total cpu time spent up to now is       39.4 secs

     total energy              =    -471.54004057 Ry
     estimated scf accuracy    <       0.03216530 Ry

     iteration #  8     ecut=    40.00 Ry     beta= 0.70
     Davidson diagonalization with overlap
     ethr =  7.66E-05,  avg # of iterations =  7.7

     negative rho (up, down):  1.377E-03 0.000E+00

     total cpu time spent up to now is       40.6 secs

     total energy              =    -471.55063138 Ry
     estimated scf accuracy    <       0.01189509 Ry

     iteration #  9     ecut=    40.00 Ry     beta= 0.70
     Davidson diagonalization with overlap
     ethr =  2.83E-05,  avg # of iterations =  4.6

     negative rho (up, down):  1.433E-03 0.000E+00

     total cpu time spent up to now is       41.5 secs

     total energy              =    -471.55281307 Ry
     estimated scf accuracy    <       0.01191697 Ry

     iteration # 10     ecut=    40.00 Ry     beta= 0.70
     Davidson diagonalization with overlap
     ethr =  2.83E-05,  avg # of iterations =  1.6

     negative rho (up, down):  2.132E-03 0.000E+00

     total cpu time spent up to now is       42.3 secs

     total energy              =    -471.55191445 Ry
     estimated scf accuracy    <       0.00907164 Ry

     iteration # 11     ecut=    40.00 Ry     beta= 0.70
     Davidson diagonalization with overlap
     ethr =  2.16E-05,  avg # of iterations =  1.7

     negative rho (up, down):  2.077E-03 0.000E+00

     total cpu time spent up to now is       43.1 secs

     total energy              =    -471.55261298 Ry
     estimated scf accuracy    <       0.00233598 Ry

     iteration # 12     ecut=    40.00 Ry     beta= 0.70
     Davidson diagonalization with overlap
     c_bands:  2 eigenvalues not converged
     ethr =  5.56E-06,  avg # of iterations =  8.3

     negative rho (up, down):  2.081E-03 0.000E+00

     total cpu time spent up to now is       44.2 secs

     total energy              =    -471.55283741 Ry
     estimated scf accuracy    <       0.00258733 Ry

     iteration # 13     ecut=    40.00 Ry     beta= 0.70
     Davidson diagonalization with overlap
     ethr =  5.56E-06,  avg # of iterations =  1.6

     negative rho (up, down):  2.062E-03 0.000E+00

     total cpu time spent up to now is       45.0 secs

     total energy              =    -471.55278601 Ry
     estimated scf accuracy    <       0.00194617 Ry

     iteration # 14     ecut=    40.00 Ry     beta= 0.70
     Davidson diagonalization with overlap
     ethr =  4.63E-06,  avg # of iterations =  5.0

     negative rho (up, down):  2.047E-03 0.000E+00

     total cpu time spent up to now is       45.9 secs

     total energy              =    -471.55262613 Ry
     estimated scf accuracy    <       0.00154470 Ry

     iteration # 15     ecut=    40.00 Ry     beta= 0.70
     Davidson diagonalization with overlap
     ethr =  3.68E-06,  avg # of iterations =  3.4

     negative rho (up, down):  2.139E-03 0.000E+00

     total cpu time spent up to now is       46.8 secs

     total energy              =    -471.55277064 Ry
     estimated scf accuracy    <       0.00019573 Ry

     iteration # 16     ecut=    40.00 Ry     beta= 0.70
     Davidson diagonalization with overlap
     ethr =  4.66E-07,  avg # of iterations =  3.6

     negative rho (up, down):  2.138E-03 0.000E+00

     total cpu time spent up to now is       47.7 secs

     total energy              =    -471.55278386 Ry
     estimated scf accuracy    <       0.00009770 Ry

     iteration # 17     ecut=    40.00 Ry     beta= 0.70
     Davidson diagonalization with overlap
     ethr =  2.33E-07,  avg # of iterations =  2.0

     negative rho (up, down):  2.150E-03 0.000E+00

     total cpu time spent up to now is       48.6 secs

     total energy              =    -471.55278493 Ry
     estimated scf accuracy    <       0.00009512 Ry

     iteration # 18     ecut=    40.00 Ry     beta= 0.70
     Davidson diagonalization with overlap
     ethr =  2.26E-07,  avg # of iterations =  2.1

     negative rho (up, down):  2.157E-03 0.000E+00

     total cpu time spent up to now is       51.5 secs

     total energy              =    -471.55278367 Ry
     estimated scf accuracy    <       0.00006264 Ry

     iteration # 19     ecut=    40.00 Ry     beta= 0.70
     Davidson diagonalization with overlap
     ethr =  1.49E-07,  avg # of iterations =  1.7

     negative rho (up, down):  2.163E-03 0.000E+00

     total cpu time spent up to now is       52.4 secs

     total energy              =    -471.55278203 Ry
     estimated scf accuracy    <       0.00003556 Ry

     iteration # 20     ecut=    40.00 Ry     beta= 0.70
     Davidson diagonalization with overlap
     ethr =  8.47E-08,  avg # of iterations =  5.6

     negative rho (up, down):  2.167E-03 0.000E+00

     total cpu time spent up to now is       53.3 secs

     total energy              =    -471.55278677 Ry
     estimated scf accuracy    <       0.00000295 Ry

     iteration # 21     ecut=    40.00 Ry     beta= 0.70
     Davidson diagonalization with overlap
     c_bands:  1 eigenvalues not converged
     ethr =  7.02E-09,  avg # of iterations =  9.5

     negative rho (up, down):  2.167E-03 0.000E+00

     total cpu time spent up to now is       54.6 secs

     total energy              =    -471.55278833 Ry
     estimated scf accuracy    <       0.00000207 Ry

     iteration # 22     ecut=    40.00 Ry     beta= 0.70
     Davidson diagonalization with overlap
     ethr =  4.94E-09,  avg # of iterations =  2.0

     negative rho (up, down):  2.168E-03 0.000E+00

     total cpu time spent up to now is       55.4 secs

     total energy              =    -471.55278836 Ry
     estimated scf accuracy    <       0.00000045 Ry

     iteration # 23     ecut=    40.00 Ry     beta= 0.70
     Davidson diagonalization with overlap
     ethr =  1.06E-09,  avg # of iterations =  6.7

     negative rho (up, down):  2.170E-03 0.000E+00

     total cpu time spent up to now is       56.4 secs

     total energy              =    -471.55278849 Ry
     estimated scf accuracy    <       0.00000002 Ry

     iteration # 24     ecut=    40.00 Ry     beta= 0.70
     Davidson diagonalization with overlap
     ethr =  3.66E-11,  avg # of iterations = 11.5

     negative rho (up, down):  2.170E-03 0.000E+00

     total cpu time spent up to now is       58.0 secs

     total energy              =    -471.55278850 Ry
     estimated scf accuracy    <       0.00000009 Ry

     iteration # 25     ecut=    40.00 Ry     beta= 0.70
     Davidson diagonalization with overlap
     ethr =  3.66E-11,  avg # of iterations =  3.3

     negative rho (up, down):  2.170E-03 0.000E+00

     total cpu time spent up to now is       58.9 secs

     total energy              =    -471.55278850 Ry
     estimated scf accuracy    <       0.00000002 Ry

     iteration # 26     ecut=    40.00 Ry     beta= 0.70
     Davidson diagonalization with overlap
     ethr =  3.66E-11,  avg # of iterations =  5.4

     negative rho (up, down):  2.170E-03 0.000E+00

     total cpu time spent up to now is       59.9 secs

     End of self-consistent calculation

          k = 0.0000 0.0000 0.0000 (  5509 PWs)   bands (ev):

   -58.8455 -58.4281 -35.1203 -34.9000 -34.8625 -34.7002 -34.4742 -34.4547
   -20.4490 -18.5097 -12.4851  -7.4477  -6.0554  -4.6123  -3.8571  -3.1729
    -2.7710  -2.6113  -2.5112  -1.7926  -1.1358  -0.7246  -0.7214   0.1921
     0.3689

          k = 0.0000 0.2887 0.0000 (  5504 PWs)   bands (ev):

   -58.8224 -58.4048 -35.0930 -35.0581 -34.9075 -34.6810 -34.6352 -34.4968
   -20.2233 -18.2530 -11.7638  -7.2239  -5.4343  -4.9130  -4.4176  -4.2695
    -3.8090  -2.9169  -2.8134  -2.1959  -1.8701  -0.7221  -0.1797   0.0843
     0.2443

          k = 0.0000-0.5773 0.0000 (  5552 PWs)   bands (ev):

   -58.7992 -58.3815 -35.2314 -35.0525 -34.9468 -34.8045 -34.6542 -34.5329
   -19.9849 -17.9777 -10.8555  -7.1508  -6.2038  -5.4122  -5.1835  -4.5237
    -3.9646  -3.2121  -3.0651  -2.7739  -2.3349   0.0104   0.4144   0.8981
     1.1318

          k = 0.2500 0.1443 0.0000 (  5504 PWs)   bands (ev):

   -58.8225 -58.4048 -35.0883 -35.0321 -34.9384 -34.6961 -34.6196 -34.4980
   -20.1794 -18.1889 -11.7633  -7.6873  -5.9168  -5.2926  -4.5912  -4.1182
    -3.4729  -2.8700  -2.7641  -1.7461  -1.3939  -0.9303  -0.3731   0.0751
     0.2385

          k = 0.2500 0.4330 0.0000 (  5528 PWs)   bands (ev):

   -58.7993 -58.3815 -35.1514 -35.0549 -35.0257 -34.7573 -34.6481 -34.5898
   -19.9387 -17.9085 -10.8855  -7.6972  -6.1468  -5.4274  -4.8890  -4.4243
    -4.2912  -4.0205  -2.8768  -2.4207  -1.1923  -0.7965  -0.3799   0.1456
     0.8295

          k = 0.2500-0.4330 0.0000 (  5528 PWs)   bands (ev):

   -58.7992 -58.3816 -35.1741 -35.0517 -35.0063 -34.7308 -34.6666 -34.5966
   -19.9279 -17.9532 -10.8885  -7.7949  -5.5893  -5.3074  -4.8018  -4.4465
    -4.3285  -4.0754  -3.1187  -2.8136  -1.1687  -0.8773  -0.2734   0.2033
     0.8664

          k = 0.2500-0.1443 0.0000 (  5504 PWs)   bands (ev):

   -58.8224 -58.4049 -35.0923 -35.0556 -34.9110 -34.6814 -34.6194 -34.5119
   -20.1699 -18.2284 -11.7699  -7.7363  -5.5875  -5.1394  -4.6090  -4.0698
    -3.4596  -3.0166  -2.6498  -2.0168  -1.7451  -0.7975  -0.3206   0.1249
     0.2671

          k =-0.5000-0.2887 0.0000 (  5552 PWs)   bands (ev):

   -58.7993 -58.3814 -35.1997 -35.0548 -34.9764 -34.8178 -34.6386 -34.5372
   -19.8872 -17.8319 -10.8608  -8.3428  -6.8902  -6.0357  -4.8885  -4.3573
    -3.7320  -3.0628  -2.8615  -2.1005  -1.6070  -0.1406   0.0205   0.6885
     0.9568

          k =-0.5000-0.0000 0.0000 (  5528 PWs)   bands (ev):

   -58.7993 -58.3815 -35.1452 -35.0549 -35.0323 -34.7470 -34.6414 -34.6065
   -19.8780 -17.8800 -10.8938  -8.3266  -6.4143  -5.3091  -4.7094  -4.3657
    -4.1332  -3.9813  -2.8769  -2.2507  -1.1484  -0.8069  -0.3076   0.1533
     0.8184

          k =-0.5000-0.8660 0.0000 (  5552 PWs)   bands (ev):

   -58.7993 -58.3816 -35.2258 -35.0551 -34.9506 -34.7909 -34.6526 -34.5476
   -19.8656 -17.9224 -10.8709  -8.4911  -6.2421  -5.7044  -4.9368  -4.2595
    -3.7534  -3.0952  -2.8361  -2.7078  -2.1239  -0.0411   0.5342   0.7003
     1.0223

     the Fermi energy is    -1.0141 ev

!    total energy              =    -471.55278850 Ry
     total all-electron energy =     -3794.856478 Ry
     estimated scf accuracy    <          1.9E-09 Ry
     smearing contrib. (-TS)   =      -0.00235571 Ry
     internal energy E=F+TS    =    -471.55043279 Ry

     The total energy is F=E-TS. E is the sum of the following terms:
     one-electron contribution =   -2720.66827548 Ry
     hartree contribution      =    1363.12931657 Ry
     xc contribution           =     -57.43015383 Ry
     ewald contribution        =    1099.40261872 Ry
     one-center paw contrib.   =    -155.98393877 Ry

     convergence has been achieved in  26 iterations

     negative rho (up, down):  2.170E-03 0.000E+00

     Forces acting on atoms (cartesian axes, Ry/au):

     atom    1 type  1   force =    -0.00091010    0.00952823    0.01749052
     atom    2 type  1   force =    -0.00568742   -0.00659070   -0.02181866
     atom    3 type  2   force =     0.00038731    0.00410045   -0.00969817
     atom    4 type  3   force =    -0.08921246   -0.03519242   -0.19556927
     atom    5 type  3   force =    -0.04625384   -0.00525449    0.08806515
     atom    6 type  4   force =     0.04889506   -0.00298263    0.02833814
     atom    7 type  4   force =     0.09278144    0.03639157    0.09319229

     Total force =     0.283280     Total SCF correction =     0.000182
     Energy error            =      5.7E-02 Ry
     Gradient error          =      2.0E-01 Ry/Bohr

     number of scf cycles    =   2
     number of bfgs steps    =   1

     energy             old  =    -471.4958799255 Ry
     energy             new  =    -471.5527884995 Ry

     CASE: energy            _new < energy            _old

     new trust radius        =       0.1916700327 bohr
     new conv_thr            =       0.0000000100 Ry


ATOMIC_POSITIONS (angstrom)
Ti              -0.3505826138        1.7611506540        2.9517031912
Ti               1.1807742026        0.8359426434        5.6472065956
C                2.7211605904       -0.0324411966        4.3135236306
O                0.4454505837        2.2135860881        7.7743397878
O                1.3526905367        0.6313786252        1.1614428700
H                0.5708077132        0.7303318467        0.6463183199
H               -0.5009510128        1.8061113391        7.4789456049



     Writing config-only to output data dir ./tmp/ti2coh2.save/ :
     XML data file
     NEW-OLD atomic charge density approx. for the potential

     Check: negative core charge=   -0.000005

     negative rho (up, down):  2.255E-03 0.000E+00

     total cpu time spent up to now is       60.6 secs

     Self-consistent Calculation

     iteration #  1     ecut=    40.00 Ry     beta= 0.70
     Davidson diagonalization with overlap
     c_bands:  1 eigenvalues not converged
     c_bands:  1 eigenvalues not converged
     c_bands:  1 eigenvalues not converged
     c_bands:  1 eigenvalues not converged
     c_bands:  1 eigenvalues not converged
     c_bands:  1 eigenvalues not converged
     ethr =  1.00E-06,  avg # of iterations = 19.8

     negative rho (up, down):  2.233E-03 0.000E+00

     total cpu time spent up to now is       64.0 secs

     total energy              =    -471.59401408 Ry
     estimated scf accuracy    <       0.02001589 Ry

     iteration #  2     ecut=    40.00 Ry     beta= 0.70
     Davidson diagonalization with overlap
     ethr =  4.77E-05,  avg # of iterations = 10.5

     negative rho (up, down):  2.848E-03 0.000E+00

     total cpu time spent up to now is       65.6 secs

     total energy              =    -471.53288866 Ry
     estimated scf accuracy    <       1.02585873 Ry

     iteration #  3     ecut=    40.00 Ry     beta= 0.70
     Davidson diagonalization with overlap
     ethr =  4.77E-05,  avg # of iterations = 10.1

     negative rho (up, down):  2.860E-03 0.000E+00

     total cpu time spent up to now is       67.0 secs

     total energy              =    -471.58454428 Ry
     estimated scf accuracy    <       0.30144163 Ry

     iteration #  4     ecut=    40.00 Ry     beta= 0.70
     Davidson diagonalization with overlap
     ethr =  4.77E-05,  avg # of iterations =  8.5

     negative rho (up, down):  2.937E-03 0.000E+00

     total cpu time spent up to now is       68.2 secs

     total energy              =    -471.59593075 Ry
     estimated scf accuracy    <       0.24610114 Ry

     iteration #  5     ecut=    40.00 Ry     beta= 0.70
     Davidson diagonalization with overlap
     ethr =  4.77E-05,  avg # of iterations =  2.6

     negative rho (up, down):  2.540E-03 0.000E+00

     total cpu time spent up to now is       69.1 secs

     total energy              =    -471.60370887 Ry
     estimated scf accuracy    <       0.00738810 Ry

     iteration #  6     ecut=    40.00 Ry     beta= 0.70
     Davidson diagonalization with overlap
     ethr =  1.76E-05,  avg # of iterations =  7.1

     negative rho (up, down):  2.269E-03 0.000E+00

     total cpu time spent up to now is       70.1 secs

     total energy              =    -471.60470859 Ry
     estimated scf accuracy    <       0.00128596 Ry

     iteration #  7     ecut=    40.00 Ry     beta= 0.70
     Davidson diagonalization with overlap
     ethr =  3.06E-06,  avg # of iterations =  7.9

     negative rho (up, down):  2.245E-03 0.000E+00

     total cpu time spent up to now is       71.2 secs

     total energy              =    -471.60491417 Ry
     estimated scf accuracy    <       0.00046045 Ry

     iteration #  8     ecut=    40.00 Ry     beta= 0.70
     Davidson diagonalization with overlap
     ethr =  1.10E-06,  avg # of iterations =  2.9

     negative rho (up, down):  2.198E-03 0.000E+00

     total cpu time spent up to now is       72.1 secs

     total energy              =    -471.60493408 Ry
     estimated scf accuracy    <       0.00014416 Ry

     iteration #  9     ecut=    40.00 Ry     beta= 0.70
     Davidson diagonalization with overlap
     ethr =  3.43E-07,  avg # of iterations =  5.7

     negative rho (up, down):  2.196E-03 0.000E+00

     total cpu time spent up to now is       73.1 secs

     total energy              =    -471.60495933 Ry
     estimated scf accuracy    <       0.00009155 Ry

     iteration # 10     ecut=    40.00 Ry     beta= 0.70
     Davidson diagonalization with overlap
     ethr =  2.18E-07,  avg # of iterations =  1.8

     negative rho (up, down):  2.196E-03 0.000E+00

     total cpu time spent up to now is       73.9 secs

     total energy              =    -471.60496138 Ry
     estimated scf accuracy    <       0.00000851 Ry

     iteration # 11     ecut=    40.00 Ry     beta= 0.70
     Davidson diagonalization with overlap
     ethr =  2.03E-08,  avg # of iterations = 10.5

     negative rho (up, down):  2.197E-03 0.000E+00

     total cpu time spent up to now is       75.3 secs

     total energy              =    -471.60496937 Ry
     estimated scf accuracy    <       0.00002346 Ry

     iteration # 12     ecut=    40.00 Ry     beta= 0.70
     Davidson diagonalization with overlap
     ethr =  2.03E-08,  avg # of iterations =  1.9

     negative rho (up, down):  2.197E-03 0.000E+00

     total cpu time spent up to now is       76.1 secs

     total energy              =    -471.60496829 Ry
     estimated scf accuracy    <       0.00000750 Ry

     iteration # 13     ecut=    40.00 Ry     beta= 0.70
     Davidson diagonalization with overlap
     ethr =  1.79E-08,  avg # of iterations =  2.7

     negative rho (up, down):  2.197E-03 0.000E+00

     total cpu time spent up to now is       77.0 secs

     total energy              =    -471.60496939 Ry
     estimated scf accuracy    <       0.00000022 Ry

     iteration # 14     ecut=    40.00 Ry     beta= 0.70
     Davidson diagonalization with overlap
     ethr =  5.16E-10,  avg # of iterations = 12.1

     negative rho (up, down):  2.196E-03 0.000E+00

     total cpu time spent up to now is       78.6 secs

     total energy              =    -471.60496977 Ry
     estimated scf accuracy    <       0.00000143 Ry

     iteration # 15     ecut=    40.00 Ry     beta= 0.70
     Davidson diagonalization with overlap
     ethr =  5.16E-10,  avg # of iterations =  2.5

     negative rho (up, down):  2.196E-03 0.000E+00

     total cpu time spent up to now is       79.5 secs

     total energy              =    -471.60496966 Ry
     estimated scf accuracy    <       0.00000074 Ry

     iteration # 16     ecut=    40.00 Ry     beta= 0.70
     Davidson diagonalization with overlap
     ethr =  5.16E-10,  avg # of iterations =  5.5

     negative rho (up, down):  2.196E-03 0.000E+00

     total cpu time spent up to now is       80.5 secs

     End of self-consistent calculation

          k = 0.0000 0.0000 0.0000 (  5509 PWs)   bands (ev):

   -58.6874 -58.2802 -34.9675 -34.7445 -34.7046 -34.5488 -34.3309 -34.3043
   -20.8161 -18.7052 -12.3666  -7.7600  -5.9283  -4.3684  -3.8018  -3.2160
    -2.9147  -2.6495  -2.4475  -1.5975  -1.1942  -0.5768  -0.5662   0.3447
     0.5148

          k = 0.0000 0.2887 0.0000 (  5504 PWs)   bands (ev):

   -58.6642 -58.2569 -34.9386 -34.9058 -34.7485 -34.5316 -34.4864 -34.3503
   -20.6074 -18.4488 -11.6475  -7.5985  -5.2653  -4.8111  -4.3814  -4.2523
    -3.7224  -3.0431  -2.7567  -2.2835  -1.7483  -0.5086   0.0364   0.2425
     0.4140

          k = 0.0000-0.5773 0.0000 (  5552 PWs)   bands (ev):

   -58.6408 -58.2336 -35.0798 -34.8982 -34.7880 -34.6571 -34.5034 -34.3863
   -20.3884 -18.1740 -10.7498  -7.5121  -6.1479  -5.4442  -5.1233  -4.3998
    -3.8884  -3.1564  -2.9844  -2.8290  -2.3613   0.2549   0.6258   1.1957
     1.3468

          k = 0.2500 0.1443 0.0000 (  5504 PWs)   bands (ev):

   -58.6642 -58.2569 -34.9348 -34.8762 -34.7825 -34.5494 -34.4727 -34.3470
   -20.5762 -18.3806 -11.6475  -7.9362  -5.8920  -5.2136  -4.5137  -4.0760
    -3.4887  -2.8401  -2.6913  -1.5645  -1.4470  -0.7536  -0.2062   0.2318
     0.4097

          k = 0.2500 0.4330 0.0000 (  5528 PWs)   bands (ev):

   -58.6409 -58.2335 -34.9990 -34.9004 -34.8679 -34.6146 -34.4964 -34.4400
   -20.3559 -18.1001 -10.7800  -7.9096  -6.2577  -5.3608  -4.8728  -4.3217
    -4.2010  -3.9294  -2.8736  -2.4941  -1.0267  -0.5884  -0.1926   0.3819
     1.0328

          k = 0.2500-0.4330 0.0000 (  5528 PWs)   bands (ev):

   -58.6408 -58.2337 -35.0204 -34.8968 -34.8500 -34.5802 -34.5194 -34.4502
   -20.3466 -18.1487 -10.7822  -7.9951  -5.6023  -5.2611  -4.7984  -4.3686
    -4.2238  -4.0074  -3.1773  -2.8800  -1.0094  -0.7137  -0.0746   0.4285
     1.0837

          k = 0.2500-0.1443 0.0000 (  5504 PWs)   bands (ev):

   -58.6642 -58.2570 -34.9383 -34.8992 -34.7560 -34.5307 -34.4694 -34.3679
   -20.5678 -18.4234 -11.6559  -7.9754  -5.4446  -5.0486  -4.5781  -4.0201
    -3.4661  -3.0845  -2.5834  -2.0374  -1.6948  -0.5857  -0.1139   0.2774
     0.4330

          k =-0.5000-0.2887 0.0000 (  5552 PWs)   bands (ev):

   -58.6409 -58.2335 -35.0454 -34.9001 -34.8210 -34.6759 -34.4871 -34.3863
   -20.3197 -18.0186 -10.7587  -8.3928  -7.0585  -5.9726  -4.8656  -4.2822
    -3.7169  -2.9809  -2.7669  -1.9390  -1.6632   0.0769   0.2701   0.8981
     1.1276

          k =-0.5000-0.0000 0.0000 (  5528 PWs)   bands (ev):

   -58.6409 -58.2336 -34.9883 -34.8989 -34.8805 -34.6029 -34.4908 -34.4571
   -20.3116 -18.0706 -10.7903  -8.3941  -6.5436  -5.2213  -4.7157  -4.2334
    -4.1172  -3.9217  -2.8672  -2.3161  -0.9811  -0.5892  -0.1314   0.3931
     1.0333

          k =-0.5000-0.8660 0.0000 (  5552 PWs)   bands (ev):

   -58.6409 -58.2337 -35.0704 -34.9003 -34.7962 -34.6412 -34.5026 -34.4030
   -20.3011 -18.1169 -10.7699  -8.5366  -6.2866  -5.6260  -4.9640  -4.1858
    -3.7462  -3.0468  -2.7517  -2.6545  -2.2258   0.1858   0.7370   0.9668
     1.2650

     the Fermi energy is    -0.8493 ev

!    total energy              =    -471.60496974 Ry
     total all-electron energy =     -3794.908659 Ry
     estimated scf accuracy    <          5.6E-09 Ry
     smearing contrib. (-TS)   =      -0.00200158 Ry
     internal energy E=F+TS    =    -471.60296816 Ry

     The total energy is F=E-TS. E is the sum of the following terms:
     one-electron contribution =   -2762.32069083 Ry
     hartree contribution      =    1384.10987203 Ry
     xc contribution           =     -57.57499109 Ry
     ewald contribution        =    1120.16498972 Ry
     one-center paw contrib.   =    -155.98214798 Ry

     convergence has been achieved in  16 iterations

     negative rho (up, down):  2.196E-03 0.000E+00

     Forces acting on atoms (cartesian axes, Ry/au):

     atom    1 type  1   force =     0.00107125    0.00918685    0.01256744
     atom    2 type  1   force =    -0.00433110   -0.00548118   -0.01337361
     atom    3 type  2   force =    -0.00135704    0.00369743   -0.00894862
     atom    4 type  3   force =    -0.07387971   -0.02773907   -0.17789650
     atom    5 type  3   force =     0.06752313   -0.01854076    0.15687202
     atom    6 type  4   force =    -0.06472613    0.01045646   -0.04128133
     atom    7 type  4   force =     0.07569961    0.02842027    0.07206059

     Total force =     0.292724     Total SCF correction =     0.000158
     Energy error            =      5.2E-02 Ry
     Gradient error          =      1.8E-01 Ry/Bohr

     number of scf cycles    =   3
     number of bfgs steps    =   2

     energy             old  =    -471.5527884995 Ry
     energy             new  =    -471.6049697409 Ry

     CASE: energy            _new < energy            _old

     new trust radius        =       0.2108370360 bohr
     new conv_thr            =       0.0000000100 Ry


ATOMIC_POSITIONS (angstrom)
Ti              -0.3509342977        1.7681821722        2.9648540639
Ti               1.1768278930        0.8311996697        5.6313951053
C                2.7216444457       -0.0293582007        4.3066080225
O                0.4438929564        2.2150731344        7.6627904180
O                1.3295506519        0.6259316946        1.2356941594
H                0.5957543097        0.7297766701        0.6582606859
H               -0.4973859592        1.8052548596        7.5138775450



     Writing config-only to output data dir ./tmp/ti2coh2.save/ :
     XML data file
     NEW-OLD atomic charge density approx. for the potential

     Check: negative core charge=   -0.000005

     negative rho (up, down):  2.254E-03 0.000E+00

     total cpu time spent up to now is       81.2 secs

     Self-consistent Calculation

     iteration #  1     ecut=    40.00 Ry     beta= 0.70
     Davidson diagonalization with overlap
     c_bands:  2 eigenvalues not converged
     c_bands:  1 eigenvalues not converged
     c_bands:  2 eigenvalues not converged
     c_bands:  1 eigenvalues not converged
     c_bands:  1 eigenvalues not converged
     c_bands:  2 eigenvalues not converged
     c_bands:  1 eigenvalues not converged
     ethr =  1.00E-06,  avg # of iterations = 20.0

     negative rho (up, down):  2.249E-03 0.000E+00

     total cpu time spent up to now is       86.9 secs

     total energy              =    -471.65542825 Ry
     estimated scf accuracy    <       0.01206610 Ry

     iteration #  2     ecut=    40.00 Ry     beta= 0.70
     Davidson diagonalization with overlap
     ethr =  2.87E-05,  avg # of iterations =  7.1

     negative rho (up, down):  2.770E-03 0.000E+00

     total cpu time spent up to now is       88.2 secs

     total energy              =    -471.63835012 Ry
     estimated scf accuracy    <       0.21158130 Ry

     iteration #  3     ecut=    40.00 Ry     beta= 0.70
     Davidson diagonalization with overlap
     ethr =  2.87E-05,  avg # of iterations = 12.4

     negative rho (up, down):  2.978E-03 0.000E+00

     total cpu time spent up to now is       89.6 secs

     total energy              =    -471.63962433 Ry
     estimated scf accuracy    <       0.64767452 Ry

     iteration #  4     ecut=    40.00 Ry     beta= 0.70
     Davidson diagonalization with overlap
     ethr =  2.87E-05,  avg # of iterations =  8.4

     negative rho (up, down):  2.599E-03 0.000E+00

     total cpu time spent up to now is       90.8 secs

     total energy              =    -471.65896305 Ry
     estimated scf accuracy    <       0.01046501 Ry

     iteration #  5     ecut=    40.00 Ry     beta= 0.70
     Davidson diagonalization with overlap
     ethr =  2.49E-05,  avg # of iterations =  2.4

     negative rho (up, down):  2.492E-03 0.000E+00

     total cpu time spent up to now is       91.7 secs

     total energy              =    -471.66002656 Ry
     estimated scf accuracy    <       0.00097883 Ry

     iteration #  6     ecut=    40.00 Ry     beta= 0.70
     Davidson diagonalization with overlap
     c_bands:  1 eigenvalues not converged
     ethr =  2.33E-06,  avg # of iterations = 10.0

     negative rho (up, down):  2.236E-03 0.000E+00

     total cpu time spent up to now is       93.1 secs

     total energy              =    -471.66057820 Ry
     estimated scf accuracy    <       0.00090507 Ry

     iteration #  7     ecut=    40.00 Ry     beta= 0.70
     Davidson diagonalization with overlap
     ethr =  2.15E-06,  avg # of iterations =  1.1

     negative rho (up, down):  2.220E-03 0.000E+00

     total cpu time spent up to now is       93.8 secs

     total energy              =    -471.66059605 Ry
     estimated scf accuracy    <       0.00010212 Ry

     iteration #  8     ecut=    40.00 Ry     beta= 0.70
     Davidson diagonalization with overlap
     ethr =  2.43E-07,  avg # of iterations =  5.1

     negative rho (up, down):  2.208E-03 0.000E+00

     total cpu time spent up to now is       94.8 secs

     total energy              =    -471.66061016 Ry
     estimated scf accuracy    <       0.00002693 Ry

     iteration #  9     ecut=    40.00 Ry     beta= 0.70
     Davidson diagonalization with overlap
     ethr =  6.41E-08,  avg # of iterations =  3.4

     negative rho (up, down):  2.207E-03 0.000E+00

     total cpu time spent up to now is       95.8 secs

     total energy              =    -471.66061500 Ry
     estimated scf accuracy    <       0.00000273 Ry

     iteration # 10     ecut=    40.00 Ry     beta= 0.70
     Davidson diagonalization with overlap
     ethr =  6.49E-09,  avg # of iterations =  8.1

     negative rho (up, down):  2.207E-03 0.000E+00

     total cpu time spent up to now is       97.1 secs

     total energy              =    -471.66061646 Ry
     estimated scf accuracy    <       0.00000450 Ry

     iteration # 11     ecut=    40.00 Ry     beta= 0.70
     Davidson diagonalization with overlap
     ethr =  6.49E-09,  avg # of iterations =  2.0

     negative rho (up, down):  2.207E-03 0.000E+00

     total cpu time spent up to now is       97.9 secs

     total energy              =    -471.66061670 Ry
     estimated scf accuracy    <       0.00000026 Ry

     iteration # 12     ecut=    40.00 Ry     beta= 0.70
     Davidson diagonalization with overlap
     ethr =  6.28E-10,  avg # of iterations =  7.5

     negative rho (up, down):  2.207E-03 0.000E+00

     total cpu time spent up to now is       99.0 secs

     total energy              =    -471.66061684 Ry
     estimated scf accuracy    <       0.00000022 Ry

     iteration # 13     ecut=    40.00 Ry     beta= 0.70
     Davidson diagonalization with overlap
     ethr =  5.12E-10,  avg # of iterations =  1.3

     negative rho (up, down):  2.207E-03 0.000E+00

     total cpu time spent up to now is       99.8 secs

     total energy              =    -471.66061682 Ry
     estimated scf accuracy    <       0.00000011 Ry

     iteration # 14     ecut=    40.00 Ry     beta= 0.70
     Davidson diagonalization with overlap
     ethr =  2.56E-10,  avg # of iterations =  5.0

     negative rho (up, down):  2.207E-03 0.000E+00

     total cpu time spent up to now is      100.8 secs

     total energy              =    -471.66061684 Ry
     estimated scf accuracy    <       0.00000002 Ry

     iteration # 15     ecut=    40.00 Ry     beta= 0.70
     Davidson diagonalization with overlap
     ethr =  4.66E-11,  avg # of iterations =  6.6

     negative rho (up, down):  2.207E-03 0.000E+00

     total cpu time spent up to now is      101.7 secs

     End of self-consistent calculation

          k = 0.0000 0.0000 0.0000 (  5509 PWs)   bands (ev):

   -58.2986 -57.9097 -34.5876 -34.3618 -34.3158 -34.1851 -33.9564 -33.9337
   -20.7127 -18.8493 -12.0201  -7.7930  -5.5754  -4.1542  -3.6652  -3.2140
    -2.9220  -2.3606  -2.1680  -1.2731  -1.1723  -0.2060  -0.1842   0.7142
     0.8963

          k = 0.0000 0.2887 0.0000 (  5504 PWs)   bands (ev):

   -58.2751 -57.8865 -34.5557 -34.5268 -34.3599 -34.1680 -34.1170 -33.9752
   -20.5071 -18.5947 -11.3036  -7.6534  -5.0101  -4.6607  -4.2215  -4.0989
    -3.4782  -3.0223  -2.5059  -2.3283  -1.3920  -0.0804   0.4573   0.6266
     0.8006

          k = 0.0000-0.5773 0.0000 (  5552 PWs)   bands (ev):

   -58.2516 -57.8631 -34.7016 -34.5154 -34.3997 -34.2873 -34.1405 -34.0112
   -20.2921 -18.3221 -10.4159  -7.5598  -5.9534  -5.4617  -4.9146  -4.1074
    -3.6565  -3.0418  -2.9496  -2.6741  -2.0714   0.7058   1.0392   1.6314
     1.7129

          k = 0.2500 0.1443 0.0000 (  5504 PWs)   bands (ev):

   -58.2752 -57.8864 -34.5533 -34.4905 -34.3994 -34.1838 -34.0982 -33.9792
   -20.4811 -18.5248 -11.3041  -7.9157  -5.8905  -4.9732  -4.2561  -3.8898
    -3.3823  -2.6851  -2.4138  -1.5108  -1.1555  -0.3605   0.1912   0.6041
     0.7987

          k = 0.2500 0.4330 0.0000 (  5528 PWs)   bands (ev):

   -58.2516 -57.8630 -34.6187 -34.5170 -34.4820 -34.2427 -34.1318 -34.0693
   -20.2651 -18.2462 -10.4463  -7.8701  -6.3410  -5.1511  -4.7161  -4.1067
    -3.8919  -3.6279  -2.8321  -2.5335  -0.6394  -0.1551   0.2258   0.8255
     1.4572

          k = 0.2500-0.4330 0.0000 (  5528 PWs)   bands (ev):

   -58.2516 -57.8631 -34.6405 -34.5138 -34.4634 -34.2128 -34.1543 -34.0754
   -20.2560 -18.2973 -10.4481  -7.9490  -5.6250  -5.0569  -4.6426  -4.2213
    -3.8865  -3.7499  -3.1863  -2.8551  -0.6333  -0.3174   0.3572   0.8670
     1.5161

          k = 0.2500-0.1443 0.0000 (  5504 PWs)   bands (ev):

   -58.2752 -57.8865 -34.5564 -34.5162 -34.3703 -34.1665 -34.1000 -33.9936
   -20.4729 -18.5697 -11.3146  -7.9459  -5.3110  -4.8528  -4.3782  -3.7609
    -3.3944  -3.0181  -2.3048  -2.0857  -1.3659  -0.1597   0.3053   0.6567
     0.8131

          k =-0.5000-0.2887 0.0000 (  5552 PWs)   bands (ev):

   -58.2517 -57.8630 -34.6622 -34.5161 -34.4387 -34.3017 -34.1221 -34.0187
   -20.2350 -18.1628 -10.4284  -8.2636  -7.1696  -5.7176  -4.7069  -4.0343
    -3.5778  -2.7121  -2.5486  -1.7032  -1.6193   0.4922   0.7227   1.3249
     1.5565

          k =-0.5000-0.0000 0.0000 (  5528 PWs)   bands (ev):

   -58.2517 -57.8631 -34.6033 -34.5139 -34.5009 -34.2301 -34.1266 -34.0872
   -20.2269 -18.2172 -10.4593  -8.2717  -6.6296  -4.9629  -4.5753  -4.0477
    -3.8685  -3.6317  -2.8054  -2.3712  -0.5895  -0.1529   0.2914   0.8383
     1.4714

          k =-0.5000-0.8660 0.0000 (  5552 PWs)   bands (ev):

   -58.2517 -57.8632 -34.6884 -34.5174 -34.4113 -34.2706 -34.1400 -34.0287
   -20.2168 -18.2661 -10.4420  -8.4026  -6.3043  -5.3173  -4.9096  -3.8572
    -3.6614  -2.9425  -2.6172  -2.4552  -2.0581   0.6252   1.1465   1.4480
     1.6490

     the Fermi energy is    -0.4518 ev

!    total energy              =    -471.66061683 Ry
     total all-electron energy =     -3794.964306 Ry
     estimated scf accuracy    <          9.4E-09 Ry
     smearing contrib. (-TS)   =      -0.00229712 Ry
     internal energy E=F+TS    =    -471.65831972 Ry

     The total energy is F=E-TS. E is the sum of the following terms:
     one-electron contribution =   -2811.40873155 Ry
     hartree contribution      =    1409.06700795 Ry
     xc contribution           =     -57.66529223 Ry
     ewald contribution        =    1144.32921583 Ry
     one-center paw contrib.   =    -155.98051972 Ry

     convergence has been achieved in  15 iterations

     negative rho (up, down):  2.207E-03 0.000E+00

     Forces acting on atoms (cartesian axes, Ry/au):

     atom    1 type  1   force =     0.00288533    0.00726626    0.01276950
     atom    2 type  1   force =    -0.00285884   -0.00445995   -0.01240808
     atom    3 type  2   force =    -0.00259859    0.00338056   -0.00681446
     atom    4 type  3   force =    -0.05512769   -0.01896173   -0.15475034
     atom    5 type  3   force =     0.06513956   -0.01706098    0.15405814
     atom    6 type  4   force =    -0.06270654    0.01068493   -0.04518035
     atom    7 type  4   force =     0.05526676    0.01915091    0.05232559

     Total force =     0.261404     Total SCF correction =     0.000407
     Energy error            =      5.6E-02 Ry
     Gradient error          =      1.5E-01 Ry/Bohr

     number of scf cycles    =   4
     number of bfgs steps    =   3

     energy             old  =    -471.6049697409 Ry
     energy             new  =    -471.6606168333 Ry

     CASE: energy            _new < energy            _old

     new trust radius        =       0.3162555540 bohr
     new conv_thr            =       0.0000000100 Ry


ATOMIC_POSITIONS (angstrom)
Ti              -0.3499748315        1.7780684341        2.9861850345
Ti               1.1716224573        0.8243336271        5.6067749335
C                2.7213006879       -0.0246164529        4.2970690678
O                0.4475861052        2.2208346928        7.4955751711
O                1.2939852758        0.6178145324        1.3566331270
H                0.6339999375        0.7294922673        0.6723766323
H               -0.4991696321        1.8001328992        7.5588660338



     Writing config-only to output data dir ./tmp/ti2coh2.save/ :
     XML data file
     NEW-OLD atomic charge density approx. for the potential

     Check: negative core charge=   -0.000005

     negative rho (up, down):  2.282E-03 0.000E+00

     total cpu time spent up to now is      102.4 secs

     Self-consistent Calculation

     iteration #  1     ecut=    40.00 Ry     beta= 0.70
     Davidson diagonalization with overlap
     c_bands:  1 eigenvalues not converged
     c_bands:  1 eigenvalues not converged
     c_bands:  1 eigenvalues not converged
     c_bands:  1 eigenvalues not converged
     c_bands:  2 eigenvalues not converged
     ethr =  1.00E-06,  avg # of iterations = 21.0

     negative rho (up, down):  2.303E-03 0.000E+00

     total cpu time spent up to now is      106.6 secs

     total energy              =    -471.71919169 Ry
     estimated scf accuracy    <       0.02996724 Ry

     iteration #  2     ecut=    40.00 Ry     beta= 0.70
     Davidson diagonalization with overlap
     ethr =  7.14E-05,  avg # of iterations =  7.2

     negative rho (up, down):  3.371E-03 0.000E+00

     total cpu time spent up to now is      107.9 secs

     total energy              =    -471.68514008 Ry
     estimated scf accuracy    <       0.33478930 Ry

     iteration #  3     ecut=    40.00 Ry     beta= 0.70
     Davidson diagonalization with overlap
     ethr =  7.14E-05,  avg # of iterations = 12.4

     negative rho (up, down):  3.832E-03 0.000E+00

     total cpu time spent up to now is      109.2 secs

     total energy              =    -471.68460508 Ry
     estimated scf accuracy    <       1.43514624 Ry

     iteration #  4     ecut=    40.00 Ry     beta= 0.70
     Davidson diagonalization with overlap
     ethr =  7.14E-05,  avg # of iterations =  8.5

     negative rho (up, down):  3.136E-03 0.000E+00

     total cpu time spent up to now is      110.5 secs

     total energy              =    -471.73003344 Ry
     estimated scf accuracy    <       0.01382463 Ry

     iteration #  5     ecut=    40.00 Ry     beta= 0.70
     Davidson diagonalization with overlap
     ethr =  3.29E-05,  avg # of iterations =  4.5

     negative rho (up, down):  2.519E-03 0.000E+00

     total cpu time spent up to now is      111.5 secs

     total energy              =    -471.73203291 Ry
     estimated scf accuracy    <       0.00093148 Ry

     iteration #  6     ecut=    40.00 Ry     beta= 0.70
     Davidson diagonalization with overlap
     c_bands:  2 eigenvalues not converged
     ethr =  2.22E-06,  avg # of iterations = 14.4

     negative rho (up, down):  2.323E-03 0.000E+00

     total cpu time spent up to now is      113.1 secs

     total energy              =    -471.73257599 Ry
     estimated scf accuracy    <       0.00091870 Ry

     iteration #  7     ecut=    40.00 Ry     beta= 0.70
     Davidson diagonalization with overlap
     ethr =  2.19E-06,  avg # of iterations =  2.2

     negative rho (up, down):  2.270E-03 0.000E+00

     total cpu time spent up to now is      113.9 secs

     total energy              =    -471.73257791 Ry
     estimated scf accuracy    <       0.00026326 Ry

     iteration #  8     ecut=    40.00 Ry     beta= 0.70
     Davidson diagonalization with overlap
     ethr =  6.27E-07,  avg # of iterations =  4.7

     negative rho (up, down):  2.240E-03 0.000E+00

     total cpu time spent up to now is      115.0 secs

     total energy              =    -471.73265738 Ry
     estimated scf accuracy    <       0.00005275 Ry

     iteration #  9     ecut=    40.00 Ry     beta= 0.70
     Davidson diagonalization with overlap
     ethr =  1.26E-07,  avg # of iterations =  5.7

     negative rho (up, down):  2.236E-03 0.000E+00

     total cpu time spent up to now is      116.0 secs

     total energy              =    -471.73266289 Ry
     estimated scf accuracy    <       0.00004843 Ry

     iteration # 10     ecut=    40.00 Ry     beta= 0.70
     Davidson diagonalization with overlap
     ethr =  1.15E-07,  avg # of iterations =  2.0

     negative rho (up, down):  2.232E-03 0.000E+00

     total cpu time spent up to now is      116.9 secs

     total energy              =    -471.73266054 Ry
     estimated scf accuracy    <       0.00001673 Ry

     iteration # 11     ecut=    40.00 Ry     beta= 0.70
     Davidson diagonalization with overlap
     ethr =  3.98E-08,  avg # of iterations =  4.4

     negative rho (up, down):  2.231E-03 0.000E+00

     total cpu time spent up to now is      119.9 secs

     total energy              =    -471.73266365 Ry
     estimated scf accuracy    <       0.00000166 Ry

     iteration # 12     ecut=    40.00 Ry     beta= 0.70
     Davidson diagonalization with overlap
     ethr =  3.95E-09,  avg # of iterations =  8.3

     negative rho (up, down):  2.232E-03 0.000E+00

     total cpu time spent up to now is      121.2 secs

     total energy              =    -471.73266464 Ry
     estimated scf accuracy    <       0.00000101 Ry

     iteration # 13     ecut=    40.00 Ry     beta= 0.70
     Davidson diagonalization with overlap
     ethr =  2.41E-09,  avg # of iterations =  4.5

     negative rho (up, down):  2.231E-03 0.000E+00

     total cpu time spent up to now is      122.2 secs

     total energy              =    -471.73266488 Ry
     estimated scf accuracy    <       0.00000046 Ry

     iteration # 14     ecut=    40.00 Ry     beta= 0.70
     Davidson diagonalization with overlap
     ethr =  1.09E-09,  avg # of iterations =  1.5

     negative rho (up, down):  2.231E-03 0.000E+00

     total cpu time spent up to now is      123.0 secs

     total energy              =    -471.73266492 Ry
     estimated scf accuracy    <       0.00000003 Ry

     iteration # 15     ecut=    40.00 Ry     beta= 0.70
     Davidson diagonalization with overlap
     ethr =  8.25E-11,  avg # of iterations =  7.1

     negative rho (up, down):  2.231E-03 0.000E+00

     total cpu time spent up to now is      124.1 secs

     End of self-consistent calculation

          k = 0.0000 0.0000 0.0000 (  5509 PWs)   bands (ev):

   -57.5783 -57.2203 -33.8867 -33.6526 -33.5969 -33.5032 -33.2678 -33.2435
   -20.3936 -18.6885 -11.3753  -7.7284  -5.0180  -4.0217  -3.2730  -3.0539
    -2.5898  -1.8053  -1.6013  -1.2327  -0.4118   0.4778   0.5294   1.3984
     1.5966

          k = 0.0000 0.2887 0.0000 (  5504 PWs)   bands (ev):

   -57.5544 -57.1969 -33.8496 -33.8247 -33.6413 -33.4867 -33.4305 -33.2837
   -20.1902 -18.4311 -10.6610  -7.6124  -4.8335  -4.3309  -3.8555  -3.6543
    -3.0115  -2.7388  -2.3156  -1.8674  -0.7143   0.6891   1.1871   1.3578
     1.5128

          k = 0.0000-0.5773 0.0000 (  5552 PWs)   bands (ev):

   -57.5304 -57.1735 -34.0024 -33.8087 -33.6819 -33.6003 -33.4595 -33.3200
   -19.9789 -18.1557  -9.7889  -7.5095  -5.6844  -5.3306  -4.4319  -3.6408
    -3.1677  -3.0573  -2.6569  -2.0853  -1.4179   1.5166   1.7772   2.3354
     2.4936

          k = 0.2500 0.1443 0.0000 (  5504 PWs)   bands (ev):

   -57.5545 -57.1969 -33.8497 -33.7782 -33.6887 -33.5013 -33.4083 -33.2922
   -20.1704 -18.3595 -10.6627  -7.7787  -5.7837  -4.5456  -3.7984  -3.5258
    -3.0945  -2.2804  -1.9571  -1.3785  -0.4169   0.3715   0.9260   1.2940
     1.5136

          k = 0.2500 0.4330 0.0000 (  5528 PWs)   bands (ev):

   -57.5305 -57.1734 -33.9167 -33.8079 -33.7684 -33.5559 -33.4489 -33.3811
   -19.9583 -18.0775  -9.8190  -7.7118  -6.2665  -4.8770  -4.3186  -3.7409
    -3.2913  -3.0564  -2.7033  -2.3574   0.0793   0.6388   0.9995   1.6354
     2.2257

          k = 0.2500-0.4330 0.0000 (  5528 PWs)   bands (ev):

   -57.5305 -57.1735 -33.9372 -33.8069 -33.7486 -33.5277 -33.4717 -33.3851
   -19.9497 -18.1323  -9.8197  -7.7806  -5.5428  -4.7838  -4.2132  -3.9493
    -3.3927  -3.2040  -2.9550  -2.5860   0.0637   0.4139   1.1342   1.6640
     2.2846

          k = 0.2500-0.1443 0.0000 (  5504 PWs)   bands (ev):

   -57.5545 -57.1969 -33.8512 -33.8078 -33.6568 -33.4837 -33.4133 -33.3041
   -20.1627 -18.4073 -10.6776  -7.7945  -5.1800  -4.4768  -3.8820  -3.2637
    -3.2004  -2.7249  -2.0570  -1.6989  -0.6858   0.6108   1.0559   1.3609
     1.5139

          k =-0.5000-0.2887 0.0000 (  5552 PWs)   bands (ev):

   -57.5306 -57.1734 -33.9553 -33.8073 -33.7298 -33.6130 -33.4396 -33.3320
   -19.9352 -17.9918  -9.8072  -7.9829  -7.0957  -5.3323  -4.3382  -3.6363
    -3.2451  -2.2869  -2.1522  -1.5098  -0.9633   1.2550   1.5474   2.1148
     2.3346

          k =-0.5000-0.0000 0.0000 (  5528 PWs)   bands (ev):

   -57.5306 -57.1734 -33.8907 -33.8089 -33.7932 -33.5415 -33.4454 -33.3995
   -19.9272 -18.0498  -9.8366  -7.9999  -6.5412  -4.6702  -4.1096  -3.9004
    -3.2535  -3.0494  -2.6264  -2.2572   0.1396   0.6457   1.0677   1.6495
     2.2692

          k =-0.5000-0.8660 0.0000 (  5552 PWs)   bands (ev):

   -57.5306 -57.1735 -33.9814 -33.8114 -33.6993 -33.5820 -33.4600 -33.3393
   -19.9180 -18.1023  -9.8264  -8.1079  -6.1913  -4.8092  -4.6692  -3.5045
    -3.2065  -2.8590  -2.4387  -1.8809  -1.4158   1.4222   1.8799   2.2870
     2.3456

     the Fermi energy is     0.2717 ev

!    total energy              =    -471.73266493 Ry
     total all-electron energy =     -3795.036354 Ry
     estimated scf accuracy    <          2.7E-09 Ry
     smearing contrib. (-TS)   =      -0.00182910 Ry
     internal energy E=F+TS    =    -471.73083583 Ry

     The total energy is F=E-TS. E is the sum of the following terms:
     one-electron contribution =   -2888.34115779 Ry
     hartree contribution      =    1448.33998410 Ry
     xc contribution           =     -57.75464988 Ry
     ewald contribution        =    1182.00405967 Ry
     one-center paw contrib.   =    -155.97907193 Ry

     convergence has been achieved in  15 iterations

     negative rho (up, down):  2.231E-03 0.000E+00

     Forces acting on atoms (cartesian axes, Ry/au):

     atom    1 type  1   force =     0.00500875    0.00109376    0.01807537
     atom    2 type  1   force =    -0.00140135   -0.00272557   -0.01205213
     atom    3 type  2   force =    -0.00366271    0.00279319   -0.00347221
     atom    4 type  3   force =    -0.06795886   -0.02509530   -0.12361225
     atom    5 type  3   force =     0.02725652   -0.00574691    0.11083999
     atom    6 type  4   force =    -0.02551879    0.00516099   -0.01905607
     atom    7 type  4   force =     0.06627645    0.02451984    0.02927730

     Total force =     0.202540     Total SCF correction =     0.000077
     Energy error            =      7.2E-02 Ry
     Gradient error          =      1.2E-01 Ry/Bohr

     number of scf cycles    =   5
     number of bfgs steps    =   4

     energy             old  =    -471.6606168333 Ry
     energy             new  =    -471.7326649329 Ry

     CASE: energy            _new < energy            _old

     new trust radius        =       0.4743833310 bohr
     new conv_thr            =       0.0000000100 Ry


ATOMIC_POSITIONS (angstrom)
Ti              -0.3459019390        1.7889788039        3.0249285793
Ti               1.1646587698        0.8147532388        5.5683788090
C                2.7191894220       -0.0173661633        4.2843979425
O                0.4373140746        2.2231782595        7.2447635210
O                1.2309735172        0.6107946801        1.5379436594
H                0.7009160188        0.7276637269        0.7006081330
H               -0.4877998634        1.7980574543        7.6124593559



     Writing config-only to output data dir ./tmp/ti2coh2.save/ :
     XML data file
     NEW-OLD atomic charge density approx. for the potential

     Check: negative core charge=   -0.000005

     negative rho (up, down):  2.309E-03 0.000E+00

     total cpu time spent up to now is      124.8 secs

     Self-consistent Calculation

     iteration #  1     ecut=    40.00 Ry     beta= 0.70
     Davidson diagonalization with overlap
     c_bands:  1 eigenvalues not converged
     c_bands:  1 eigenvalues not converged
     c_bands:  2 eigenvalues not converged
     c_bands:  2 eigenvalues not converged
     c_bands:  4 eigenvalues not converged
     c_bands:  1 eigenvalues not converged
     ethr =  1.00E-06,  avg # of iterations = 21.2

     negative rho (up, down):  2.350E-03 0.000E+00

     total cpu time spent up to now is      129.3 secs

     total energy              =    -471.76100670 Ry
     estimated scf accuracy    <       0.08269405 Ry

     iteration #  2     ecut=    40.00 Ry     beta= 0.70
     Davidson diagonalization with overlap
     ethr =  1.97E-04,  avg # of iterations =  7.9

     negative rho (up, down):  3.730E-03 0.000E+00

     total cpu time spent up to now is      130.7 secs

     total energy              =    -471.66060591 Ry
     estimated scf accuracy    <       1.07652489 Ry

     iteration #  3     ecut=    40.00 Ry     beta= 0.70
     Davidson diagonalization with overlap
     c_bands:  1 eigenvalues not converged
     ethr =  1.97E-04,  avg # of iterations = 13.8

     negative rho (up, down):  4.103E-03 0.000E+00

     total cpu time spent up to now is      132.3 secs

     total energy              =    -471.69023054 Ry
     estimated scf accuracy    <       2.32178511 Ry

     iteration #  4     ecut=    40.00 Ry     beta= 0.70
     Davidson diagonalization with overlap
     ethr =  1.97E-04,  avg # of iterations =  9.4

     negative rho (up, down):  3.036E-03 0.000E+00

     total cpu time spent up to now is      133.5 secs

     total energy              =    -471.79638908 Ry
     estimated scf accuracy    <       0.03757556 Ry

     iteration #  5     ecut=    40.00 Ry     beta= 0.70
     Davidson diagonalization with overlap
     ethr =  8.95E-05,  avg # of iterations =  4.7

     negative rho (up, down):  2.159E-03 0.000E+00

     total cpu time spent up to now is      134.5 secs

     total energy              =    -471.80062855 Ry
     estimated scf accuracy    <       0.00437520 Ry

     iteration #  6     ecut=    40.00 Ry     beta= 0.70
     Davidson diagonalization with overlap
     c_bands:  1 eigenvalues not converged
     ethr =  1.04E-05,  avg # of iterations = 11.1

     negative rho (up, down):  2.060E-03 0.000E+00

     total cpu time spent up to now is      135.8 secs

     total energy              =    -471.80183321 Ry
     estimated scf accuracy    <       0.00197456 Ry

     iteration #  7     ecut=    40.00 Ry     beta= 0.70
     Davidson diagonalization with overlap
     ethr =  4.70E-06,  avg # of iterations =  5.8

     negative rho (up, down):  1.873E-03 0.000E+00

     total cpu time spent up to now is      136.8 secs

     total energy              =    -471.80189451 Ry
     estimated scf accuracy    <       0.00075594 Ry

     iteration #  8     ecut=    40.00 Ry     beta= 0.70
     Davidson diagonalization with overlap
     ethr =  1.80E-06,  avg # of iterations =  4.5

     negative rho (up, down):  1.927E-03 0.000E+00

     total cpu time spent up to now is      137.7 secs

     total energy              =    -471.80200753 Ry
     estimated scf accuracy    <       0.00026943 Ry

     iteration #  9     ecut=    40.00 Ry     beta= 0.70
     Davidson diagonalization with overlap
     ethr =  6.42E-07,  avg # of iterations =  4.0

     negative rho (up, down):  2.067E-03 0.000E+00

     total cpu time spent up to now is      138.7 secs

     total energy              =    -471.80198346 Ry
     estimated scf accuracy    <       0.00018077 Ry

     iteration # 10     ecut=    40.00 Ry     beta= 0.70
     Davidson diagonalization with overlap
     ethr =  4.30E-07,  avg # of iterations =  2.2

     negative rho (up, down):  2.180E-03 0.000E+00

     total cpu time spent up to now is      139.6 secs

     total energy              =    -471.80199249 Ry
     estimated scf accuracy    <       0.00002686 Ry

     iteration # 11     ecut=    40.00 Ry     beta= 0.70
     Davidson diagonalization with overlap
     ethr =  6.39E-08,  avg # of iterations =  5.6

     negative rho (up, down):  2.125E-03 0.000E+00

     total cpu time spent up to now is      140.9 secs

     total energy              =    -471.80200522 Ry
     estimated scf accuracy    <       0.00002687 Ry

     iteration # 12     ecut=    40.00 Ry     beta= 0.70
     Davidson diagonalization with overlap
     ethr =  6.39E-08,  avg # of iterations =  4.8

     negative rho (up, down):  2.119E-03 0.000E+00

     total cpu time spent up to now is      141.8 secs

     total energy              =    -471.80200965 Ry
     estimated scf accuracy    <       0.00000076 Ry

     iteration # 13     ecut=    40.00 Ry     beta= 0.70
     Davidson diagonalization with overlap
     ethr =  1.80E-09,  avg # of iterations =  7.5

     negative rho (up, down):  2.121E-03 0.000E+00

     total cpu time spent up to now is      143.1 secs

     total energy              =    -471.80200987 Ry
     estimated scf accuracy    <       0.00000204 Ry

     iteration # 14     ecut=    40.00 Ry     beta= 0.70
     Davidson diagonalization with overlap
     ethr =  1.80E-09,  avg # of iterations =  5.9

     negative rho (up, down):  2.123E-03 0.000E+00

     total cpu time spent up to now is      144.3 secs

     total energy              =    -471.80201033 Ry
     estimated scf accuracy    <       0.00000135 Ry

     iteration # 15     ecut=    40.00 Ry     beta= 0.70
     Davidson diagonalization with overlap
     ethr =  1.80E-09,  avg # of iterations =  4.7

     negative rho (up, down):  2.125E-03 0.000E+00

     total cpu time spent up to now is      145.4 secs

     total energy              =    -471.80201063 Ry
     estimated scf accuracy    <       0.00000012 Ry

     iteration # 16     ecut=    40.00 Ry     beta= 0.70
     Davidson diagonalization with overlap
     ethr =  2.91E-10,  avg # of iterations =  2.7

     negative rho (up, down):  2.125E-03 0.000E+00

     total cpu time spent up to now is      146.3 secs

     total energy              =    -471.80201064 Ry
     estimated scf accuracy    <       0.00000010 Ry

     iteration # 17     ecut=    40.00 Ry     beta= 0.70
     Davidson diagonalization with overlap
     ethr =  2.45E-10,  avg # of iterations =  1.6

     negative rho (up, down):  2.124E-03 0.000E+00

     total cpu time spent up to now is      147.1 secs

     total energy              =    -471.80201064 Ry
     estimated scf accuracy    <       0.00000002 Ry

     iteration # 18     ecut=    40.00 Ry     beta= 0.70
     Davidson diagonalization with overlap
     ethr =  5.17E-11,  avg # of iterations =  5.3

     negative rho (up, down):  2.125E-03 0.000E+00

     total cpu time spent up to now is      148.1 secs

     End of self-consistent calculation

          k = 0.0000 0.0000 0.0000 (  5509 PWs)   bands (ev):

   -56.3498 -56.0623 -32.7071 -32.4462 -32.3735 -32.3598 -32.1151 -32.0885
   -19.7325 -18.2919 -10.3035  -7.3876  -4.8005  -3.4581  -2.7433  -2.5681
    -1.8927  -1.4504  -0.6944  -0.5812   0.8418   1.6157   1.7544   2.1055
     2.5573

          k = 0.0000 0.2887 0.0000 (  5504 PWs)   bands (ev):

   -56.3248 -56.0387 -32.6676 -32.6243 -32.4172 -32.3480 -32.2813 -32.1284
   -19.5336 -18.0362  -9.5875  -7.2996  -4.9068  -3.8743  -3.0707  -2.9222
    -2.4240  -2.1405  -1.7980  -0.9225   0.4284   1.9106   2.2879   2.5749
     2.7143

          k = 0.0000-0.5773 0.0000 (  5552 PWs)   bands (ev):

   -56.2998 -56.0150 -32.8214 -32.6166 -32.4608 -32.4456 -32.3214 -32.1665
   -19.3303 -17.7653  -8.7407  -7.1729  -5.4699  -4.9236  -3.5375  -3.0675
    -2.9990  -2.3162  -2.0032  -1.0914  -0.2909   2.8209   3.0187   3.5062
     3.7358

          k = 0.2500 0.1443 0.0000 (  5504 PWs)   bands (ev):

   -56.3251 -56.0387 -32.6652 -32.5691 -32.4769 -32.3563 -32.2560 -32.1429
   -19.5201 -17.9706  -9.5939  -7.3588  -5.6032  -3.9408  -3.2364  -2.9874
    -2.2920  -1.7974  -1.4753  -0.6316   0.8153   1.5971   2.1245   2.4538
     2.7080

          k = 0.2500 0.4330 0.0000 (  5528 PWs)   bands (ev):

   -56.3001 -56.0150 -32.7309 -32.6060 -32.5551 -32.4032 -32.3081 -32.2336
   -19.3156 -17.6924  -8.7685  -7.2698  -6.0166  -4.4482  -3.6751  -3.0599
    -2.8429  -2.2507  -2.0759  -1.7265   1.2746   1.9566   2.3094   2.9704
     3.4832

          k = 0.2500-0.4330 0.0000 (  5528 PWs)   bands (ev):

   -56.3001 -56.0149 -32.7490 -32.6098 -32.5337 -32.3847 -32.3263 -32.2328
   -19.3096 -17.7485  -8.7651  -7.3215  -5.4014  -4.3775  -3.5874  -3.4389
    -2.8344  -2.5178  -2.1106  -1.7706   1.2216   1.6309   2.4104   2.9731
     3.5152

          k = 0.2500-0.1443 0.0000 (  5504 PWs)   bands (ev):

   -56.3251 -56.0386 -32.6640 -32.6033 -32.4413 -32.3403 -32.2682 -32.1492
   -19.5146 -18.0182  -9.6160  -7.3538  -5.1340  -3.9323  -3.0818  -2.9233
    -2.3350  -2.1713  -1.7027  -0.7447   0.4810   1.8518   2.2457   2.5367
     2.7060

          k =-0.5000-0.2887 0.0000 (  5552 PWs)   bands (ev):

   -56.3003 -56.0151 -32.7584 -32.6103 -32.5221 -32.4559 -32.3026 -32.1830
   -19.2996 -17.6139  -8.7703  -7.3881  -6.7513  -4.8475  -3.5627  -3.1356
    -2.6917  -2.0976  -1.3657  -0.7075   0.1959   2.5226   2.9171   3.4515
     3.5110

          k =-0.5000-0.0000 0.0000 (  5528 PWs)   bands (ev):

   -56.3003 -56.0150 -32.6791 -32.6291 -32.5816 -32.3855 -32.3133 -32.2482
   -19.2934 -17.6714  -8.7947  -7.4169  -6.2272  -4.3085  -3.5557  -3.1817
    -2.8086  -2.2342  -2.0046  -1.6796   1.3554   1.9696   2.3650   2.9833
     3.5698

          k =-0.5000-0.8660 0.0000 (  5552 PWs)   bands (ev):

   -56.3004 -56.0148 -32.7841 -32.6201 -32.4886 -32.4293 -32.3236 -32.1860
   -19.2875 -17.7249  -8.8011  -7.4759  -5.9140  -4.5385  -3.5884  -3.1589
    -2.9319  -2.2420  -1.8659  -0.9054  -0.2487   2.7464   3.0771   3.4991
     3.6346

     the Fermi energy is     1.4725 ev

!    total energy              =    -471.80201064 Ry
     total all-electron energy =     -3795.105700 Ry
     estimated scf accuracy    <          6.1E-09 Ry
     smearing contrib. (-TS)   =      -0.00128606 Ry
     internal energy E=F+TS    =    -471.80072457 Ry

     The total energy is F=E-TS. E is the sum of the following terms:
     one-electron contribution =   -3007.75458026 Ry
     hartree contribution      =    1509.41617296 Ry
     xc contribution           =     -57.86167623 Ry
     ewald contribution        =    1240.37904123 Ry
     one-center paw contrib.   =    -155.97968228 Ry

     convergence has been achieved in  18 iterations

     negative rho (up, down):  2.125E-03 0.000E+00

     Forces acting on atoms (cartesian axes, Ry/au):

     atom    1 type  1   force =     0.00635468   -0.01584430    0.03168309
     atom    2 type  1   force =    -0.00222072    0.00110631   -0.03023825
     atom    3 type  2   force =    -0.00417307    0.00132852    0.00419297
     atom    4 type  3   force =    -0.10854954   -0.04843023   -0.03304802
     atom    5 type  3   force =    -0.02068329    0.02161336    0.01145687
     atom    6 type  4   force =     0.02211491   -0.00576173    0.04192111
     atom    7 type  4   force =     0.10715704    0.04598807   -0.02596777

     Total force =     0.187219     Total SCF correction =     0.000320
     Energy error            =      6.9E-02 Ry
     Gradient error          =      1.1E-01 Ry/Bohr

     number of scf cycles    =   6
     number of bfgs steps    =   5

     energy             old  =    -471.7326649329 Ry
     energy             new  =    -471.8020106368 Ry

     CASE: energy            _new < energy            _old

     new trust radius        =       0.3875209234 bohr
     new conv_thr            =       0.0000000100 Ry


ATOMIC_POSITIONS (angstrom)
Ti              -0.3385221413        1.7858355077        3.0754342882
Ti               1.1578185654        0.8085375665        5.5173575938
C                2.7148046386       -0.0110986755        4.2781967097
O                0.3766691670        2.2005770670        7.0501768956
O                1.1795025543        0.6197460385        1.6853303709
H                0.7563328369        0.7234302367        0.7453034072
H               -0.4272556209        1.8190322591        7.6216807347



     Writing config-only to output data dir ./tmp/ti2coh2.save/ :
     XML data file
     NEW-OLD atomic charge density approx. for the potential

     Check: negative core charge=   -0.000005

     negative rho (up, down):  2.187E-03 0.000E+00

     total cpu time spent up to now is      148.8 secs

     Self-consistent Calculation

     iteration #  1     ecut=    40.00 Ry     beta= 0.70
     Davidson diagonalization with overlap
     c_bands:  1 eigenvalues not converged
     c_bands:  3 eigenvalues not converged
     c_bands:  4 eigenvalues not converged
     c_bands:  3 eigenvalues not converged
     c_bands:  2 eigenvalues not converged
     c_bands:  5 eigenvalues not converged
     ethr =  1.00E-06,  avg # of iterations = 19.5

     negative rho (up, down):  2.210E-03 0.000E+00

     total cpu time spent up to now is      155.0 secs

     total energy              =    -471.80764212 Ry
     estimated scf accuracy    <       0.05916231 Ry

     iteration #  2     ecut=    40.00 Ry     beta= 0.70
     Davidson diagonalization with overlap
     ethr =  1.41E-04,  avg # of iterations = 12.3

     negative rho (up, down):  1.615E-03 0.000E+00

     total cpu time spent up to now is      156.6 secs

     total energy              =    -471.72877760 Ry
     estimated scf accuracy    <       0.90225721 Ry

     iteration #  3     ecut=    40.00 Ry     beta= 0.70
     Davidson diagonalization with overlap
     c_bands:  1 eigenvalues not converged
     ethr =  1.41E-04,  avg # of iterations = 13.5

     negative rho (up, down):  1.944E-03 0.000E+00

     total cpu time spent up to now is      158.1 secs

     total energy              =    -471.79534463 Ry
     estimated scf accuracy    <       0.48142426 Ry

     iteration #  4     ecut=    40.00 Ry     beta= 0.70
     Davidson diagonalization with overlap
     ethr =  1.41E-04,  avg # of iterations = 10.9

     negative rho (up, down):  1.216E-03 0.000E+00

     total cpu time spent up to now is      159.3 secs

     total energy              =    -471.82997787 Ry
     estimated scf accuracy    <       0.19215404 Ry

     iteration #  5     ecut=    40.00 Ry     beta= 0.70
     Davidson diagonalization with overlap
     ethr =  1.41E-04,  avg # of iterations =  1.8

     negative rho (up, down):  7.711E-04 0.000E+00

     total cpu time spent up to now is      160.1 secs

     total energy              =    -471.83605276 Ry
     estimated scf accuracy    <       0.01369589 Ry

     iteration #  6     ecut=    40.00 Ry     beta= 0.70
     Davidson diagonalization with overlap
     ethr =  3.26E-05,  avg # of iterations =  6.1

     negative rho (up, down):  7.964E-04 0.000E+00

     total cpu time spent up to now is      161.1 secs

     total energy              =    -471.83762830 Ry
     estimated scf accuracy    <       0.00124697 Ry

     iteration #  7     ecut=    40.00 Ry     beta= 0.70
     Davidson diagonalization with overlap
     c_bands:  1 eigenvalues not converged
     c_bands:  1 eigenvalues not converged
     ethr =  2.97E-06,  avg # of iterations = 12.1

     negative rho (up, down):  8.670E-04 0.000E+00

     total cpu time spent up to now is      162.4 secs

     total energy              =    -471.83795936 Ry
     estimated scf accuracy    <       0.00048136 Ry

     iteration #  8     ecut=    40.00 Ry     beta= 0.70
     Davidson diagonalization with overlap
     ethr =  1.15E-06,  avg # of iterations =  6.9

     negative rho (up, down):  1.125E-03 0.000E+00

     total cpu time spent up to now is      163.4 secs

     total energy              =    -471.83798888 Ry
     estimated scf accuracy    <       0.00093994 Ry

     iteration #  9     ecut=    40.00 Ry     beta= 0.70
     Davidson diagonalization with overlap
     ethr =  1.15E-06,  avg # of iterations =  2.9

     negative rho (up, down):  1.283E-03 0.000E+00

     total cpu time spent up to now is      164.3 secs

     total energy              =    -471.83800636 Ry
     estimated scf accuracy    <       0.00022486 Ry

     iteration # 10     ecut=    40.00 Ry     beta= 0.70
     Davidson diagonalization with overlap
     ethr =  5.35E-07,  avg # of iterations =  1.6

     negative rho (up, down):  1.576E-03 0.000E+00

     total cpu time spent up to now is      165.1 secs

     total energy              =    -471.83800664 Ry
     estimated scf accuracy    <       0.00004724 Ry

     iteration # 11     ecut=    40.00 Ry     beta= 0.70
     Davidson diagonalization with overlap
     ethr =  1.12E-07,  avg # of iterations =  4.4

     negative rho (up, down):  1.613E-03 0.000E+00

     total cpu time spent up to now is      166.1 secs

     total energy              =    -471.83800774 Ry
     estimated scf accuracy    <       0.00003826 Ry

     iteration # 12     ecut=    40.00 Ry     beta= 0.70
     Davidson diagonalization with overlap
     ethr =  9.11E-08,  avg # of iterations =  1.7

     negative rho (up, down):  1.666E-03 0.000E+00

     total cpu time spent up to now is      166.9 secs

     total energy              =    -471.83801160 Ry
     estimated scf accuracy    <       0.00000614 Ry

     iteration # 13     ecut=    40.00 Ry     beta= 0.70
     Davidson diagonalization with overlap
     ethr =  1.46E-08,  avg # of iterations =  5.5

     negative rho (up, down):  1.665E-03 0.000E+00

     total cpu time spent up to now is      168.0 secs

     total energy              =    -471.83801307 Ry
     estimated scf accuracy    <       0.00000112 Ry

     iteration # 14     ecut=    40.00 Ry     beta= 0.70
     Davidson diagonalization with overlap
     ethr =  2.67E-09,  avg # of iterations =  3.8

     negative rho (up, down):  1.667E-03 0.000E+00

     total cpu time spent up to now is      168.9 secs

     total energy              =    -471.83801311 Ry
     estimated scf accuracy    <       0.00000026 Ry

     iteration # 15     ecut=    40.00 Ry     beta= 0.70
     Davidson diagonalization with overlap
     ethr =  6.13E-10,  avg # of iterations =  5.1

     negative rho (up, down):  1.669E-03 0.000E+00

     total cpu time spent up to now is      170.1 secs

     total energy              =    -471.83801326 Ry
     estimated scf accuracy    <       0.00000018 Ry

     iteration # 16     ecut=    40.00 Ry     beta= 0.70
     Davidson diagonalization with overlap
     ethr =  4.29E-10,  avg # of iterations =  1.5

     negative rho (up, down):  1.670E-03 0.000E+00

     total cpu time spent up to now is      171.0 secs

     total energy              =    -471.83801325 Ry
     estimated scf accuracy    <       0.00000006 Ry

     iteration # 17     ecut=    40.00 Ry     beta= 0.70
     Davidson diagonalization with overlap
     ethr =  1.42E-10,  avg # of iterations =  3.8

     negative rho (up, down):  1.670E-03 0.000E+00

     total cpu time spent up to now is      171.9 secs

     End of self-consistent calculation

          k = 0.0000 0.0000 0.0000 (  5509 PWs)   bands (ev):

   -55.7641 -55.5646 -32.1847 -31.8936 -31.8513 -31.7890 -31.6295 -31.6007
   -19.3133 -18.5953  -9.9174  -7.1626  -5.5279  -3.1647  -2.6066  -2.3950
    -1.9723  -1.7222  -0.4032  -0.2920   1.4522   2.0274   2.1773   2.2962
     3.1072

          k = 0.0000 0.2887 0.0000 (  5504 PWs)   bands (ev):

   -55.7375 -55.5409 -32.1407 -32.0691 -31.8655 -31.8394 -31.7865 -31.6407
   -19.1173 -18.3609  -9.2072  -7.0627  -5.6071  -3.6988  -3.0898  -2.6492
    -2.5036  -1.8421  -1.5869  -0.6790   0.9090   2.4192   2.6801   3.0860
     3.3233

          k = 0.0000-0.5773 0.0000 (  5552 PWs)   bands (ev):

   -55.7107 -55.5173 -32.2893 -32.0999 -31.9283 -31.8841 -31.8400 -31.6805
   -18.9213 -18.1178  -8.3964  -6.8974  -5.8856  -4.7673  -3.7091  -2.8604
    -2.7343  -2.3946  -1.5741  -0.8102   0.1702   3.4319   3.7156   4.0126
     4.2527

          k = 0.2500 0.1443 0.0000 (  5504 PWs)   bands (ev):

   -55.7381 -55.5412 -32.1350 -32.0136 -31.9087 -31.8526 -31.7651 -31.6609
   -19.1064 -18.3122  -9.2234  -7.0797  -6.0149  -3.7339  -3.1947  -2.9301
    -2.2458  -1.9331  -1.1820  -0.3554   1.3050   2.1720   2.6299   2.9359
     3.2872

          k = 0.2500 0.4330 0.0000 (  5528 PWs)   bands (ev):

   -55.7113 -55.5175 -32.1932 -32.0588 -31.9965 -31.9010 -31.8213 -31.7514
   -18.9080 -18.0623  -8.4268  -6.9641  -6.2730  -4.2638  -3.5188  -3.2589
    -2.8935  -2.1373  -1.7161  -1.3531   1.7852   2.5097   3.0150   3.6352
     4.0421

          k = 0.2500-0.4330 0.0000 (  5528 PWs)   bands (ev):

   -55.7112 -55.5170 -32.2130 -32.0657 -31.9823 -31.8904 -31.8279 -31.7468
   -18.9058 -18.1096  -8.4107  -6.9963  -5.8485  -4.2166  -3.6385  -3.3224
    -2.7382  -2.4217  -1.7095  -1.4106   1.7002   2.1493   3.0507   3.6199
     4.0361

          k = 0.2500-0.1443 0.0000 (  5504 PWs)   bands (ev):

   -55.7380 -55.5408 -32.1319 -32.0479 -31.8729 -31.8454 -31.7831 -31.6594
   -19.1037 -18.3508  -9.2384  -7.0609  -5.7188  -3.7282  -3.0755  -2.8088
    -2.4181  -1.8161  -1.5656  -0.4978   0.9870   2.3882   2.7174   3.0599
     3.2407

          k =-0.5000-0.2887 0.0000 (  5552 PWs)   bands (ev):

   -55.7119 -55.5178 -32.2128 -32.0703 -31.9711 -31.9406 -31.8166 -31.7003
   -18.8950 -18.0049  -8.4442  -7.0179  -6.8198  -4.7026  -3.4498  -3.1007
    -2.5735  -2.5050  -0.9797  -0.3732   0.6314   3.1666   3.6200   4.0160
     4.1177

          k =-0.5000-0.0000 0.0000 (  5528 PWs)   bands (ev):

   -55.7118 -55.5173 -32.1226 -32.0916 -32.0222 -31.8857 -31.8447 -31.7545
   -18.8912 -18.0508  -8.4555  -7.0393  -6.3985  -4.1919  -3.4101  -3.2662
    -2.9159  -2.2577  -1.6286  -1.2819   1.8851   2.5254   3.0445   3.6478
     4.1280

          k =-0.5000-0.8660 0.0000 (  5552 PWs)   bands (ev):

   -55.7117 -55.5169 -32.2419 -32.0874 -31.9562 -31.9016 -31.8351 -31.6981
   -18.8898 -18.0957  -8.4588  -7.0686  -6.1459  -4.4481  -3.6201  -3.0520
    -2.8818  -2.3173  -1.4331  -0.6321   0.2579   3.4384   3.6747   3.9978
     4.2018

     the Fermi energy is     1.9798 ev

!    total energy              =    -471.83801326 Ry
     total all-electron energy =     -3795.141702 Ry
     estimated scf accuracy    <          7.1E-09 Ry
     smearing contrib. (-TS)   =      -0.00115591 Ry
     internal energy E=F+TS    =    -471.83685735 Ry

     The total energy is F=E-TS. E is the sum of the following terms:
     one-electron contribution =   -3114.28346813 Ry
     hartree contribution      =    1563.20725603 Ry
     xc contribution           =     -57.99513209 Ry
     ewald contribution        =    1293.21765969 Ry
     one-center paw contrib.   =    -155.98317286 Ry

     convergence has been achieved in  17 iterations

     negative rho (up, down):  1.670E-03 0.000E+00

     Forces acting on atoms (cartesian axes, Ry/au):

     atom    1 type  1   force =     0.00286196   -0.02906927    0.02123096
     atom    2 type  1   force =    -0.00384841    0.00870103   -0.04059753
     atom    3 type  2   force =    -0.00242477   -0.00293950    0.01269717
     atom    4 type  3   force =    -0.08287569   -0.04402141    0.03557604
     atom    5 type  3   force =    -0.03638621    0.04137837   -0.06118983
     atom    6 type  4   force =     0.03924835   -0.01132476    0.08590221
     atom    7 type  4   force =     0.08342478    0.03727554   -0.05361902

     Total force =     0.200855     Total SCF correction =     0.000393
     Energy error            =      3.6E-02 Ry
     Gradient error          =      8.6E-02 Ry/Bohr

     number of scf cycles    =   7
     number of bfgs steps    =   6

     energy             old  =    -471.8020106368 Ry
     energy             new  =    -471.8380132609 Ry

     CASE: energy            _new < energy            _old

     new trust radius        =       0.1851409827 bohr
     new conv_thr            =       0.0000000086 Ry


ATOMIC_POSITIONS (angstrom)
Ti              -0.3330634482        1.7665999350        3.1077987096
Ti               1.1528862849        0.8117885944        5.4722283449
C                2.7108384977       -0.0104560858        4.2837945349
O                0.3070158999        2.1673509950        6.9898192987
O                1.1669143690        0.6450674826        1.7339481296
H                0.7725806653        0.7186726068        0.7972294853
H               -0.3578222685        1.8470364719        7.5886614970



     Writing config-only to output data dir ./tmp/ti2coh2.save/ :
     XML data file
     NEW-OLD atomic charge density approx. for the potential

     Check: negative core charge=   -0.000005

     negative rho (up, down):  1.691E-03 0.000E+00

     total cpu time spent up to now is      172.6 secs

     Self-consistent Calculation

     iteration #  1     ecut=    40.00 Ry     beta= 0.70
     Davidson diagonalization with overlap
     c_bands:  1 eigenvalues not converged
     c_bands:  1 eigenvalues not converged
     ethr =  1.00E-06,  avg # of iterations = 18.9

     negative rho (up, down):  1.808E-03 0.000E+00

     total cpu time spent up to now is      176.1 secs

     total energy              =    -471.85046559 Ry
     estimated scf accuracy    <       0.01768966 Ry

     iteration #  2     ecut=    40.00 Ry     beta= 0.70
     Davidson diagonalization with overlap
     ethr =  4.21E-05,  avg # of iterations =  7.1

     negative rho (up, down):  3.471E-03 0.000E+00

     total cpu time spent up to now is      177.4 secs

     total energy              =    -471.83524705 Ry
     estimated scf accuracy    <       0.14917829 Ry

     iteration #  3     ecut=    40.00 Ry     beta= 0.70
     Davidson diagonalization with overlap
     ethr =  4.21E-05,  avg # of iterations = 13.9

     negative rho (up, down):  4.269E-03 0.000E+00

     total cpu time spent up to now is      178.8 secs

     total energy              =    -471.83762395 Ry
     estimated scf accuracy    <       0.36294784 Ry

     iteration #  4     ecut=    40.00 Ry     beta= 0.70
     Davidson diagonalization with overlap
     c_bands:  1 eigenvalues not converged
     c_bands:  1 eigenvalues not converged
     ethr =  4.21E-05,  avg # of iterations = 12.5

     negative rho (up, down):  3.595E-03 0.000E+00

     total cpu time spent up to now is      180.2 secs

     total energy              =    -471.85578588 Ry
     estimated scf accuracy    <       0.02810886 Ry

     iteration #  5     ecut=    40.00 Ry     beta= 0.70
     Davidson diagonalization with overlap
     ethr =  4.21E-05,  avg # of iterations =  2.3

     negative rho (up, down):  2.240E-03 0.000E+00

     total cpu time spent up to now is      181.0 secs

     total energy              =    -471.85844468 Ry
     estimated scf accuracy    <       0.00054449 Ry

     iteration #  6     ecut=    40.00 Ry     beta= 0.70
     Davidson diagonalization with overlap
     c_bands:  1 eigenvalues not converged
     ethr =  1.30E-06,  avg # of iterations = 15.1

     negative rho (up, down):  1.996E-03 0.000E+00

     total cpu time spent up to now is      182.8 secs

     total energy              =    -471.85893947 Ry
     estimated scf accuracy    <       0.00056518 Ry

     iteration #  7     ecut=    40.00 Ry     beta= 0.70
     Davidson diagonalization with overlap
     ethr =  1.30E-06,  avg # of iterations =  1.9

     negative rho (up, down):  1.708E-03 0.000E+00

     total cpu time spent up to now is      183.6 secs

     total energy              =    -471.85897054 Ry
     estimated scf accuracy    <       0.00020177 Ry

     iteration #  8     ecut=    40.00 Ry     beta= 0.70
     Davidson diagonalization with overlap
     ethr =  4.80E-07,  avg # of iterations =  4.2

     negative rho (up, down):  1.658E-03 0.000E+00

     total cpu time spent up to now is      184.5 secs

     total energy              =    -471.85901020 Ry
     estimated scf accuracy    <       0.00004348 Ry

     iteration #  9     ecut=    40.00 Ry     beta= 0.70
     Davidson diagonalization with overlap
     ethr =  1.04E-07,  avg # of iterations =  4.4

     negative rho (up, down):  1.647E-03 0.000E+00

     total cpu time spent up to now is      185.5 secs

     total energy              =    -471.85901233 Ry
     estimated scf accuracy    <       0.00002261 Ry

     iteration # 10     ecut=    40.00 Ry     beta= 0.70
     Davidson diagonalization with overlap
     ethr =  5.38E-08,  avg # of iterations =  2.2

     negative rho (up, down):  1.643E-03 0.000E+00

     total cpu time spent up to now is      188.5 secs

     total energy              =    -471.85901345 Ry
     estimated scf accuracy    <       0.00000955 Ry

     iteration # 11     ecut=    40.00 Ry     beta= 0.70
     Davidson diagonalization with overlap
     ethr =  2.27E-08,  avg # of iterations =  5.1

     negative rho (up, down):  1.641E-03 0.000E+00

     total cpu time spent up to now is      189.5 secs

     total energy              =    -471.85901450 Ry
     estimated scf accuracy    <       0.00000176 Ry

     iteration # 12     ecut=    40.00 Ry     beta= 0.70
     Davidson diagonalization with overlap
     ethr =  4.18E-09,  avg # of iterations =  5.8

     negative rho (up, down):  1.642E-03 0.000E+00

     total cpu time spent up to now is      190.4 secs

     total energy              =    -471.85901493 Ry
     estimated scf accuracy    <       0.00000029 Ry

     iteration # 13     ecut=    40.00 Ry     beta= 0.70
     Davidson diagonalization with overlap
     ethr =  6.81E-10,  avg # of iterations =  4.9

     negative rho (up, down):  1.642E-03 0.000E+00

     total cpu time spent up to now is      191.4 secs

     total energy              =    -471.85901501 Ry
     estimated scf accuracy    <       0.00000003 Ry

     iteration # 14     ecut=    40.00 Ry     beta= 0.70
     Davidson diagonalization with overlap
     ethr =  6.98E-11,  avg # of iterations =  6.2

     negative rho (up, down):  1.642E-03 0.000E+00

     total cpu time spent up to now is      192.5 secs

     total energy              =    -471.85901502 Ry
     estimated scf accuracy    <       0.00000001 Ry

     iteration # 15     ecut=    40.00 Ry     beta= 0.70
     Davidson diagonalization with overlap
     ethr =  3.27E-11,  avg # of iterations =  3.8

     negative rho (up, down):  1.642E-03 0.000E+00

     total cpu time spent up to now is      193.4 secs

     End of self-consistent calculation

          k = 0.0000 0.0000 0.0000 (  5509 PWs)   bands (ev):

   -55.6293 -55.4631 -32.0853 -31.7621 -31.7261 -31.6561 -31.5342 -31.5106
   -19.3180 -19.0836  -9.9217  -7.1742  -5.9917  -3.0896  -2.5849  -2.3854
    -2.0191  -1.6760  -0.4643  -0.3967   1.6809   2.0943   2.2167   2.3264
     3.2610

          k = 0.0000 0.2887 0.0000 (  5504 PWs)   bands (ev):

   -55.6012 -55.4403 -32.0343 -31.9492 -31.7565 -31.7142 -31.6725 -31.5489
   -19.1240 -18.8753  -9.2084  -7.0434  -6.0993  -3.6338  -3.0650  -2.6075
    -2.5200  -1.8190  -1.5559  -0.7663   0.9711   2.5568   2.8136   3.1877
     3.4924

          k = 0.0000-0.5773 0.0000 (  5552 PWs)   bands (ev):

   -55.5728 -55.4175 -32.1714 -32.0119 -31.7995 -31.7582 -31.7349 -31.5875
   -18.9310 -18.6615  -8.4253  -6.8673  -6.2472  -4.7506  -3.8005  -2.7916
    -2.6707  -2.3821  -1.4527  -0.8743   0.2097   3.6657   3.9264   4.0914
     4.3562

          k = 0.2500 0.1443 0.0000 (  5504 PWs)   bands (ev):

   -55.6020 -55.4404 -32.0315 -31.8907 -31.7852 -31.7313 -31.6610 -31.5692
   -19.1140 -18.8408  -9.2348  -7.0759  -6.3447  -3.6590  -3.1233  -2.8789
    -2.2914  -1.9174  -1.2450  -0.4351   1.2789   2.3241   2.7950   2.9914
     3.4787

          k = 0.2500 0.4330 0.0000 (  5528 PWs)   bands (ev):

   -55.5736 -55.4175 -32.0721 -31.9556 -31.8849 -31.7817 -31.7165 -31.6522
   -18.9184 -18.6218  -8.4577  -6.9443  -6.5208  -4.2074  -3.5082  -3.2680
    -2.8697  -2.1271  -1.7225  -1.3246   1.8585   2.5154   3.2410   3.8307
     4.1454

          k = 0.2500-0.4330 0.0000 (  5528 PWs)   bands (ev):

   -55.5734 -55.4172 -32.0974 -31.9645 -31.8751 -31.7643 -31.7135 -31.6526
   -18.9181 -18.6570  -8.4310  -6.9612  -6.2385  -4.1737  -3.6364  -3.2505
    -2.7628  -2.3464  -1.7033  -1.3866   1.7630   2.1886   3.2543   3.8207
     4.1213

          k = 0.2500-0.1443 0.0000 (  5504 PWs)   bands (ev):

   -55.6017 -55.4400 -32.0281 -31.9293 -31.7497 -31.7306 -31.6754 -31.5611
   -19.1128 -18.8693  -9.2365  -7.0404  -6.1593  -3.6609  -3.0440  -2.7446
    -2.4549  -1.8413  -1.5190  -0.6114   1.0409   2.5215   2.8522   3.1591
     3.4153

          k =-0.5000-0.2887 0.0000 (  5552 PWs)   bands (ev):

   -55.5745 -55.4177 -32.0976 -31.9696 -31.8548 -31.8216 -31.7008 -31.6072
   -18.9066 -18.5819  -8.4905  -7.0277  -6.8850  -4.6475  -3.4532  -3.0681
    -2.5693  -2.5101  -0.9882  -0.4147   0.5357   3.3976   3.8399   4.0984
     4.2695

          k =-0.5000-0.0000 0.0000 (  5528 PWs)   bands (ev):

   -55.5742 -55.4173 -32.0143 -31.9738 -31.9058 -31.7817 -31.7401 -31.6462
   -18.9045 -18.6151  -8.4793  -7.0095  -6.6004  -4.1476  -3.3893  -3.2792
    -2.9039  -2.2700  -1.6438  -1.2573   1.9477   2.5324   3.2640   3.8401
     4.2113

          k =-0.5000-0.8660 0.0000 (  5552 PWs)   bands (ev):

   -55.5739 -55.4169 -32.1318 -31.9953 -31.8394 -31.7728 -31.7224 -31.5994
   -18.9050 -18.6485  -8.4786  -7.0163  -6.4062  -4.4327  -3.7670  -2.9679
    -2.8291  -2.3085  -1.3502  -0.7210   0.2943   3.7046   3.8793   4.0730
     4.3190

     the Fermi energy is     2.0457 ev

!    total energy              =    -471.85901502 Ry
     total all-electron energy =     -3795.162704 Ry
     estimated scf accuracy    <          1.2E-09 Ry
     smearing contrib. (-TS)   =      -0.00105024 Ry
     internal energy E=F+TS    =    -471.85796478 Ry

     The total energy is F=E-TS. E is the sum of the following terms:
     one-electron contribution =   -3162.85167358 Ry
     hartree contribution      =    1587.60712262 Ry
     xc contribution           =     -58.15739138 Ry
     ewald contribution        =    1317.52801121 Ry
     one-center paw contrib.   =    -155.98403365 Ry

     convergence has been achieved in  15 iterations

     negative rho (up, down):  1.642E-03 0.000E+00

     Forces acting on atoms (cartesian axes, Ry/au):

     atom    1 type  1   force =    -0.00025426   -0.02225071   -0.00494474
     atom    2 type  1   force =    -0.00211574    0.01176168   -0.01157396
     atom    3 type  2   force =    -0.00011967   -0.00776098    0.00944847
     atom    4 type  3   force =     0.03384031    0.01059232   -0.04947996
     atom    5 type  3   force =    -0.02690583    0.03372687   -0.04333350
     atom    6 type  4   force =     0.02997599   -0.00700961    0.06660076
     atom    7 type  4   force =    -0.03442081   -0.01905957    0.03328293

     Total force =     0.128179     Total SCF correction =     0.000105
     Energy error            =      2.1E-02 Ry
     Gradient error          =      6.7E-02 Ry/Bohr

     number of scf cycles    =   8
     number of bfgs steps    =   7

     energy             old  =    -471.8380132609 Ry
     energy             new  =    -471.8590150221 Ry

     CASE: energy            _new < energy            _old

     new trust radius        =       0.2409244786 bohr
     new conv_thr            =       0.0000000067 Ry


ATOMIC_POSITIONS (angstrom)
Ti              -0.3288061059        1.7442747955        3.1357886002
Ti               1.1465184807        0.8180139747        5.4260447544
C                2.7077520584       -0.0124813266        4.2895163841
O                0.2791152094        2.1523137767        6.8663301161
O                1.1397391108        0.6775441097        1.7912152289
H                0.8048911346        0.7123275803        0.8699345910
H               -0.3298598879        1.8540670897        7.5946503253



     Writing config-only to output data dir ./tmp/ti2coh2.save/ :
     XML data file
     NEW-OLD atomic charge density approx. for the potential

     Check: negative core charge=   -0.000005

     negative rho (up, down):  1.649E-03 0.000E+00

     total cpu time spent up to now is      194.0 secs

     Self-consistent Calculation

     iteration #  1     ecut=    40.00 Ry     beta= 0.70
     Davidson diagonalization with overlap
     c_bands:  2 eigenvalues not converged
     c_bands:  4 eigenvalues not converged
     ethr =  1.00E-06,  avg # of iterations = 17.9

     negative rho (up, down):  1.758E-03 0.000E+00

     total cpu time spent up to now is      197.6 secs

     total energy              =    -471.85499696 Ry
     estimated scf accuracy    <       0.02432184 Ry

     iteration #  2     ecut=    40.00 Ry     beta= 0.70
     Davidson diagonalization with overlap
     c_bands:  1 eigenvalues not converged
     c_bands:  1 eigenvalues not converged
     ethr =  5.79E-05,  avg # of iterations = 12.9

     negative rho (up, down):  5.537E-04 0.000E+00

     total cpu time spent up to now is      199.1 secs

     total energy              =    -471.81953240 Ry
     estimated scf accuracy    <       0.40700322 Ry

     iteration #  3     ecut=    40.00 Ry     beta= 0.70
     Davidson diagonalization with overlap
     c_bands:  1 eigenvalues not converged
     c_bands:  1 eigenvalues not converged
     ethr =  5.79E-05,  avg # of iterations = 13.1

     negative rho (up, down):  6.806E-04 0.000E+00

     total cpu time spent up to now is      200.5 secs

     total energy              =    -471.85536325 Ry
     estimated scf accuracy    <       0.08861353 Ry

     iteration #  4     ecut=    40.00 Ry     beta= 0.70
     Davidson diagonalization with overlap
     ethr =  5.79E-05,  avg # of iterations =  8.3

     negative rho (up, down):  3.893E-04 0.000E+00

     total cpu time spent up to now is      201.6 secs

     total energy              =    -471.86217786 Ry
     estimated scf accuracy    <       0.10214119 Ry

     iteration #  5     ecut=    40.00 Ry     beta= 0.70
     Davidson diagonalization with overlap
     ethr =  5.79E-05,  avg # of iterations =  2.0

     negative rho (up, down):  4.241E-04 0.000E+00

     total cpu time spent up to now is      202.5 secs

     total energy              =    -471.86675586 Ry
     estimated scf accuracy    <       0.00258518 Ry

     iteration #  6     ecut=    40.00 Ry     beta= 0.70
     Davidson diagonalization with overlap
     ethr =  6.16E-06,  avg # of iterations = 12.4

     negative rho (up, down):  3.639E-04 0.000E+00

     total cpu time spent up to now is      203.7 secs

     total energy              =    -471.86753414 Ry
     estimated scf accuracy    <       0.00167395 Ry

     iteration #  7     ecut=    40.00 Ry     beta= 0.70
     Davidson diagonalization with overlap
     ethr =  3.99E-06,  avg # of iterations =  2.6

     negative rho (up, down):  3.475E-04 0.000E+00

     total cpu time spent up to now is      204.5 secs

     total energy              =    -471.86761854 Ry
     estimated scf accuracy    <       0.00054301 Ry

     iteration #  8     ecut=    40.00 Ry     beta= 0.70
     Davidson diagonalization with overlap
     ethr =  1.29E-06,  avg # of iterations =  4.4

     negative rho (up, down):  5.253E-04 0.000E+00

     total cpu time spent up to now is      205.4 secs

     total energy              =    -471.86765560 Ry
     estimated scf accuracy    <       0.00018723 Ry

     iteration #  9     ecut=    40.00 Ry     beta= 0.70
     Davidson diagonalization with overlap
     ethr =  4.46E-07,  avg # of iterations =  2.0

     negative rho (up, down):  9.158E-04 0.000E+00

     total cpu time spent up to now is      206.3 secs

     total energy              =    -471.86763619 Ry
     estimated scf accuracy    <       0.00009228 Ry

     iteration # 10     ecut=    40.00 Ry     beta= 0.70
     Davidson diagonalization with overlap
     ethr =  2.20E-07,  avg # of iterations =  4.1

     negative rho (up, down):  1.193E-03 0.000E+00

     total cpu time spent up to now is      207.2 secs

     total energy              =    -471.86764954 Ry
     estimated scf accuracy    <       0.00001684 Ry

     iteration # 11     ecut=    40.00 Ry     beta= 0.70
     Davidson diagonalization with overlap
     ethr =  4.01E-08,  avg # of iterations =  7.6

     negative rho (up, down):  1.394E-03 0.000E+00

     total cpu time spent up to now is      208.3 secs

     total energy              =    -471.86765316 Ry
     estimated scf accuracy    <       0.00000739 Ry

     iteration # 12     ecut=    40.00 Ry     beta= 0.70
     Davidson diagonalization with overlap
     ethr =  1.76E-08,  avg # of iterations =  3.1

     negative rho (up, down):  1.454E-03 0.000E+00

     total cpu time spent up to now is      209.2 secs

     total energy              =    -471.86765373 Ry
     estimated scf accuracy    <       0.00000199 Ry

     iteration # 13     ecut=    40.00 Ry     beta= 0.70
     Davidson diagonalization with overlap
     ethr =  4.73E-09,  avg # of iterations =  2.7

     negative rho (up, down):  1.460E-03 0.000E+00

     total cpu time spent up to now is      210.1 secs

     total energy              =    -471.86765378 Ry
     estimated scf accuracy    <       0.00000039 Ry

     iteration # 14     ecut=    40.00 Ry     beta= 0.70
     Davidson diagonalization with overlap
     ethr =  9.40E-10,  avg # of iterations =  5.5

     negative rho (up, down):  1.464E-03 0.000E+00

     total cpu time spent up to now is      211.3 secs

     total energy              =    -471.86765396 Ry
     estimated scf accuracy    <       0.00000021 Ry

     iteration # 15     ecut=    40.00 Ry     beta= 0.70
     Davidson diagonalization with overlap
     ethr =  5.07E-10,  avg # of iterations =  2.5

     negative rho (up, down):  1.464E-03 0.000E+00

     total cpu time spent up to now is      212.1 secs

     total energy              =    -471.86765398 Ry
     estimated scf accuracy    <       0.00000003 Ry

     iteration # 16     ecut=    40.00 Ry     beta= 0.70
     Davidson diagonalization with overlap
     ethr =  8.06E-11,  avg # of iterations =  5.7

     negative rho (up, down):  1.464E-03 0.000E+00

     total cpu time spent up to now is      213.2 secs

     total energy              =    -471.86765399 Ry
     estimated scf accuracy    <       0.00000002 Ry

     iteration # 17     ecut=    40.00 Ry     beta= 0.70
     Davidson diagonalization with overlap
     ethr =  5.23E-11,  avg # of iterations =  4.6

     negative rho (up, down):  1.464E-03 0.000E+00

     total cpu time spent up to now is      214.1 secs

     total energy              =    -471.86765399 Ry
     estimated scf accuracy    <          6.8E-09 Ry

     iteration # 18     ecut=    40.00 Ry     beta= 0.70
     Davidson diagonalization with overlap
     ethr =  1.62E-11,  avg # of iterations =  2.5

     negative rho (up, down):  1.464E-03 0.000E+00

     total cpu time spent up to now is      215.0 secs

     End of self-consistent calculation

          k = 0.0000 0.0000 0.0000 (  5509 PWs)   bands (ev):

   -55.3194 -55.1790 -31.8280 -31.4536 -31.4286 -31.3487 -31.2642 -31.2389
   -19.3374 -18.9307  -9.7530  -7.1554  -6.1095  -2.8338  -2.4704  -2.3066
    -2.2377  -1.5978  -0.3562  -0.3144   2.0692   2.3190   2.3984   2.5313
     3.1784

          k = 0.0000 0.2887 0.0000 (  5504 PWs)   bands (ev):

   -55.2887 -55.1575 -31.7692 -31.6543 -31.4833 -31.4175 -31.3772 -31.2762
   -19.1495 -18.7212  -9.0352  -6.9898  -6.2419  -3.5014  -3.1237  -2.5325
    -2.4667  -1.6113  -1.4073  -0.6564   1.2222   2.8145   3.1145   3.4441
     3.8034

          k = 0.0000-0.5773 0.0000 (  5552 PWs)   bands (ev):

   -55.2575 -55.1363 -31.8813 -31.7640 -31.5060 -31.4591 -31.4548 -31.3134
   -18.9638 -18.5094  -8.2779  -6.8115  -6.3067  -4.6277  -3.9014  -2.6254
    -2.5365  -2.3568  -1.1514  -0.7348   0.4561   3.9873   4.2449   4.3476
     4.6071

          k = 0.2500 0.1443 0.0000 (  5504 PWs)   bands (ev):

   -55.2898 -55.1577 -31.7702 -31.5980 -31.4851 -31.4377 -31.3747 -31.2997
   -19.1413 -18.6932  -9.0715  -7.0386  -6.3777  -3.5104  -3.1223  -2.7573
    -2.5075  -1.7339  -1.0994  -0.3325   1.4591   2.6703   3.1634   3.2118
     3.8412

          k = 0.2500 0.4330 0.0000 (  5528 PWs)   bands (ev):

   -55.2586 -55.1364 -31.7815 -31.6872 -31.6083 -31.4851 -31.4431 -31.3683
   -18.9528 -18.4749  -8.3105  -6.8933  -6.5120  -4.0658  -3.5865  -3.2088
    -2.9072  -1.9899  -1.5488  -1.0580   2.1192   2.7290   3.6662   4.1955
     4.4288

          k = 0.2500-0.4330 0.0000 (  5528 PWs)   bands (ev):

   -55.2580 -55.1361 -31.8128 -31.7065 -31.6005 -31.4600 -31.4263 -31.3763
   -18.9549 -18.5067  -8.2673  -6.8913  -6.2998  -4.0470  -3.7082  -3.0982
    -2.8078  -2.1668  -1.5327  -1.1438   2.0160   2.4172   3.6478   4.2042
     4.3596

          k = 0.2500-0.1443 0.0000 (  5504 PWs)   bands (ev):

   -55.2892 -55.1573 -31.7649 -31.6394 -31.4756 -31.4326 -31.3811 -31.2821
   -19.1420 -18.7169  -9.0601  -6.9822  -6.2737  -3.5165  -3.1037  -2.6030
    -2.4670  -1.6569  -1.3787  -0.5487   1.2856   2.7712   3.1583   3.4064
     3.7514

          k =-0.5000-0.2887 0.0000 (  5552 PWs)   bands (ev):

   -55.2598 -55.1366 -31.8163 -31.7072 -31.5615 -31.5249 -31.4106 -31.3357
   -18.9434 -18.4420  -8.3637  -6.9815  -6.7737  -4.4996  -3.5805  -2.9693
    -2.7277  -2.3275  -0.7562  -0.2665   0.6909   3.7731   4.2372   4.3391
     4.5894

          k =-0.5000-0.0000 0.0000 (  5528 PWs)   bands (ev):

   -55.2591 -55.1362 -31.7421 -31.6958 -31.6166 -31.4971 -31.4611 -31.3591
   -18.9433 -18.4699  -8.3235  -6.9380  -6.5687  -4.0249  -3.5224  -3.1510
    -2.9545  -2.1516  -1.4798  -1.0080   2.1862   2.7447   3.6943   4.1920
     4.4767

          k =-0.5000-0.8660 0.0000 (  5552 PWs)   bands (ev):

   -55.2584 -55.1359 -31.8550 -31.7461 -31.5475 -31.4701 -31.4362 -31.3203
   -18.9462 -18.4998  -8.3200  -6.9118  -6.4143  -4.3665  -3.8768  -2.7804
    -2.6768  -2.3176  -1.0944  -0.6385   0.5427   4.0035   4.2669   4.3030
     4.5938

     the Fermi energy is     2.2922 ev

!    total energy              =    -471.86765399 Ry
     total all-electron energy =     -3795.171343 Ry
     estimated scf accuracy    <          1.2E-09 Ry
     smearing contrib. (-TS)   =      -0.00160525 Ry
     internal energy E=F+TS    =    -471.86604874 Ry

     The total energy is F=E-TS. E is the sum of the following terms:
     one-electron contribution =   -3226.80740613 Ry
     hartree contribution      =    1619.89620216 Ry
     xc contribution           =     -58.24262995 Ry
     ewald contribution        =    1349.27448909 Ry
     one-center paw contrib.   =    -155.98670391 Ry

     convergence has been achieved in  18 iterations

     negative rho (up, down):  1.464E-03 0.000E+00

     Forces acting on atoms (cartesian axes, Ry/au):

     atom    1 type  1   force =    -0.00455607   -0.01383748   -0.02419575
     atom    2 type  1   force =    -0.00049502    0.01497348   -0.00654240
     atom    3 type  2   force =     0.00120095   -0.01136794    0.00085167
     atom    4 type  3   force =    -0.02132012   -0.02075414    0.04416463
     atom    5 type  3   force =    -0.00309161    0.02490716    0.00308322
     atom    6 type  4   force =     0.00825418   -0.00187350    0.01201179
     atom    7 type  4   force =     0.02000770    0.00795242   -0.02937315

     Total force =     0.078828     Total SCF correction =     0.000122
     Energy error            =      8.6E-03 Ry
     Gradient error          =      4.4E-02 Ry/Bohr

     number of scf cycles    =   9
     number of bfgs steps    =   8

     energy             old  =    -471.8590150221 Ry
     energy             new  =    -471.8676539898 Ry

     CASE: energy            _new < energy            _old

     new trust radius        =       0.0310288559 bohr
     new conv_thr            =       0.0000000044 Ry


ATOMIC_POSITIONS (angstrom)
Ti              -0.3308245366        1.7346930829        3.1226081088
Ti               1.1462831944        0.8267929657        5.4234793981
C                2.7081788497       -0.0190135861        4.2914921348
O                0.2755329109        2.1451148160        6.8805115629
O                1.1434075033        0.6927753917        1.7882270647
H                0.8039327142        0.7115023501        0.8793706524
H               -0.3271606359        1.8541949797        7.5877910781



     Writing config-only to output data dir ./tmp/ti2coh2.save/ :
     XML data file
     NEW-OLD atomic charge density approx. for the potential

     Check: negative core charge=   -0.000005

     negative rho (up, down):  1.455E-03 0.000E+00

     total cpu time spent up to now is      215.7 secs

     Self-consistent Calculation

     iteration #  1     ecut=    40.00 Ry     beta= 0.70
     Davidson diagonalization with overlap
     ethr =  1.00E-06,  avg # of iterations =  9.0

     negative rho (up, down):  1.457E-03 0.000E+00

     total cpu time spent up to now is      217.7 secs

     total energy              =    -471.86976942 Ry
     estimated scf accuracy    <       0.00136635 Ry

     iteration #  2     ecut=    40.00 Ry     beta= 0.70
     Davidson diagonalization with overlap
     ethr =  3.25E-06,  avg # of iterations = 13.8

     negative rho (up, down):  1.676E-03 0.000E+00

     total cpu time spent up to now is      219.3 secs

     total energy              =    -471.86671587 Ry
     estimated scf accuracy    <       0.05111128 Ry

     iteration #  3     ecut=    40.00 Ry     beta= 0.70
     Davidson diagonalization with overlap
     ethr =  3.25E-06,  avg # of iterations = 15.0

     negative rho (up, down):  1.702E-03 0.000E+00

     total cpu time spent up to now is      223.0 secs

     total energy              =    -471.86961256 Ry
     estimated scf accuracy    <       0.01301799 Ry

     iteration #  4     ecut=    40.00 Ry     beta= 0.70
     Davidson diagonalization with overlap
     ethr =  3.25E-06,  avg # of iterations =  6.7

     negative rho (up, down):  1.689E-03 0.000E+00

     total cpu time spent up to now is      224.1 secs

     total energy              =    -471.87025550 Ry
     estimated scf accuracy    <       0.00194105 Ry

     iteration #  5     ecut=    40.00 Ry     beta= 0.70
     Davidson diagonalization with overlap
     ethr =  3.25E-06,  avg # of iterations =  2.0

     negative rho (up, down):  1.532E-03 0.000E+00

     total cpu time spent up to now is      225.0 secs

     total energy              =    -471.87052900 Ry
     estimated scf accuracy    <       0.00016210 Ry

     iteration #  6     ecut=    40.00 Ry     beta= 0.70
     Davidson diagonalization with overlap
     ethr =  3.86E-07,  avg # of iterations =  5.5

     negative rho (up, down):  1.515E-03 0.000E+00

     total cpu time spent up to now is      226.0 secs

     total energy              =    -471.87056891 Ry
     estimated scf accuracy    <       0.00003660 Ry

     iteration #  7     ecut=    40.00 Ry     beta= 0.70
     Davidson diagonalization with overlap
     ethr =  8.71E-08,  avg # of iterations =  4.2

     negative rho (up, down):  1.489E-03 0.000E+00

     total cpu time spent up to now is      226.9 secs

     total energy              =    -471.87057572 Ry
     estimated scf accuracy    <       0.00001270 Ry

     iteration #  8     ecut=    40.00 Ry     beta= 0.70
     Davidson diagonalization with overlap
     ethr =  3.02E-08,  avg # of iterations =  5.5

     negative rho (up, down):  1.489E-03 0.000E+00

     total cpu time spent up to now is      227.9 secs

     total energy              =    -471.87057915 Ry
     estimated scf accuracy    <       0.00000233 Ry

     iteration #  9     ecut=    40.00 Ry     beta= 0.70
     Davidson diagonalization with overlap
     ethr =  5.55E-09,  avg # of iterations =  4.2

     negative rho (up, down):  1.490E-03 0.000E+00

     total cpu time spent up to now is      228.9 secs

     total energy              =    -471.87057951 Ry
     estimated scf accuracy    <       0.00000045 Ry

     iteration # 10     ecut=    40.00 Ry     beta= 0.70
     Davidson diagonalization with overlap
     ethr =  1.06E-09,  avg # of iterations =  5.8

     negative rho (up, down):  1.490E-03 0.000E+00

     total cpu time spent up to now is      230.0 secs

     total energy              =    -471.87057968 Ry
     estimated scf accuracy    <       0.00000005 Ry

     iteration # 11     ecut=    40.00 Ry     beta= 0.70
     Davidson diagonalization with overlap
     ethr =  1.25E-10,  avg # of iterations =  4.6

     negative rho (up, down):  1.490E-03 0.000E+00

     total cpu time spent up to now is      231.0 secs

     End of self-consistent calculation

          k = 0.0000 0.0000 0.0000 (  5509 PWs)   bands (ev):

   -55.3763 -55.2201 -31.8690 -31.4984 -31.4826 -31.4084 -31.3028 -31.2803
   -19.5106 -18.9881  -9.7985  -7.2602  -6.1245  -2.8797  -2.6018  -2.3741
    -2.1743  -1.5732  -0.3665  -0.3355   2.0264   2.2819   2.3585   2.4803
     3.2721

          k = 0.0000 0.2887 0.0000 (  5504 PWs)   bands (ev):

   -55.3465 -55.1978 -31.8098 -31.7057 -31.5173 -31.4762 -31.4265 -31.3202
   -19.3246 -18.7815  -9.0755  -7.1119  -6.2485  -3.6052  -3.0810  -2.6105
    -2.5063  -1.6445  -1.4053  -0.6551   1.1847   2.7815   3.0873   3.3972
     3.7502

          k = 0.0000-0.5773 0.0000 (  5552 PWs)   bands (ev):

   -55.3163 -55.1757 -31.9287 -31.7986 -31.5628 -31.5164 -31.4901 -31.3585
   -19.1408 -18.5722  -8.3128  -6.9415  -6.3138  -4.7138  -3.8868  -2.7447
    -2.5717  -2.3275  -1.1717  -0.7417   0.4141   3.9590   4.1764   4.2996
     4.5594

          k = 0.2500 0.1443 0.0000 (  5504 PWs)   bands (ev):

   -55.3473 -55.1982 -31.8114 -31.6487 -31.5403 -31.4838 -31.4200 -31.3398
   -19.3164 -18.7537  -9.1095  -7.1634  -6.3899  -3.6102  -3.0997  -2.8426
    -2.4416  -1.7718  -1.1438  -0.3559   1.4049   2.6313   3.1358   3.1659
     3.7930

          k = 0.2500 0.4330 0.0000 (  5528 PWs)   bands (ev):

   -55.3172 -55.1761 -31.8260 -31.7322 -31.6581 -31.5341 -31.4869 -31.4131
   -19.1299 -18.5383  -8.3405  -7.0331  -6.5173  -4.1772  -3.5444  -3.2700
    -2.8974  -2.0245  -1.5796  -1.1089   2.1013   2.6813   3.6186   4.1419
     4.3806

          k = 0.2500-0.4330 0.0000 (  5528 PWs)   bands (ev):

   -55.3166 -55.1757 -31.8615 -31.7473 -31.6478 -31.5120 -31.4701 -31.4193
   -19.1324 -18.5692  -8.2993  -7.0247  -6.3120  -4.1581  -3.6693  -3.2100
    -2.7826  -2.1846  -1.5595  -1.1918   1.9968   2.3748   3.6018   4.1566
     4.3020

          k = 0.2500-0.1443 0.0000 (  5504 PWs)   bands (ev):

   -55.3468 -55.1978 -31.8071 -31.6945 -31.5153 -31.4841 -31.4290 -31.3229
   -19.3176 -18.7770  -9.0998  -7.1064  -6.2840  -3.6208  -3.0705  -2.6949
    -2.4616  -1.6995  -1.3787  -0.5751   1.2334   2.7568   3.1216   3.3636
     3.7255

          k =-0.5000-0.2887 0.0000 (  5552 PWs)   bands (ev):

   -55.3180 -55.1765 -31.8663 -31.7510 -31.6032 -31.5803 -31.4561 -31.3770
   -19.1207 -18.5058  -8.3924  -7.0967  -6.8044  -4.5944  -3.5387  -3.0368
    -2.6799  -2.3852  -0.8187  -0.3017   0.6274   3.7216   4.1930   4.2870
     4.5554

          k =-0.5000-0.0000 0.0000 (  5528 PWs)   bands (ev):

   -55.3175 -55.1760 -31.7958 -31.7418 -31.6649 -31.5401 -31.4978 -31.4076
   -19.1211 -18.5333  -8.3500  -7.0805  -6.5753  -4.1346  -3.4769  -3.2504
    -2.9232  -2.1666  -1.5245  -1.0664   2.1470   2.6919   3.6527   4.1389
     4.4309

          k =-0.5000-0.8660 0.0000 (  5552 PWs)   bands (ev):

   -55.3169 -55.1757 -31.9083 -31.7891 -31.5877 -31.5216 -31.4817 -31.3618
   -19.1244 -18.5623  -8.3522  -7.0412  -6.4291  -4.4697  -3.8509  -2.8791
    -2.7058  -2.2948  -1.1329  -0.6799   0.4830   3.9999   4.1948   4.2621
     4.5599

     the Fermi energy is     2.2589 ev

!    total energy              =    -471.87057970 Ry
     total all-electron energy =     -3795.174269 Ry
     estimated scf accuracy    <          3.7E-09 Ry
     smearing contrib. (-TS)   =      -0.00181298 Ry
     internal energy E=F+TS    =    -471.86876672 Ry

     The total energy is F=E-TS. E is the sum of the following terms:
     one-electron contribution =   -3220.93821538 Ry
     hartree contribution      =    1616.89248963 Ry
     xc contribution           =     -58.25745215 Ry
     ewald contribution        =    1346.42032459 Ry
     one-center paw contrib.   =    -155.98591341 Ry

     convergence has been achieved in  11 iterations

     negative rho (up, down):  1.490E-03 0.000E+00

     Forces acting on atoms (cartesian axes, Ry/au):

     atom    1 type  1   force =    -0.00307915   -0.01082265   -0.01499666
     atom    2 type  1   force =    -0.00048370    0.00836289   -0.00024801
     atom    3 type  2   force =     0.00100028   -0.00707238   -0.00403811
     atom    4 type  3   force =    -0.00032201   -0.00758434    0.00885940
     atom    5 type  3   force =     0.00249091    0.02106810    0.02005239
     atom    6 type  4   force =     0.00235590   -0.00078497   -0.00690608
     atom    7 type  4   force =    -0.00196222   -0.00316666   -0.00272293

     Total force =     0.039402     Total SCF correction =     0.000246
     Energy error            =      2.9E-03 Ry
     Gradient error          =      2.1E-02 Ry/Bohr

     number of scf cycles    =  10
     number of bfgs steps    =   9

     energy             old  =    -471.8676539898 Ry
     energy             new  =    -471.8705796974 Ry

     CASE: energy            _new < energy            _old

     new trust radius        =       0.0682634830 bohr
     new conv_thr            =       0.0000000021 Ry


ATOMIC_POSITIONS (angstrom)
Ti              -0.3334819801        1.7183812721        3.1095472811
Ti               1.1447461432        0.8383513269        5.4143427564
C                2.7086720318       -0.0278428821        4.2903007194
O                0.2673285825        2.1326954742        6.8736919280
O                1.1403128388        0.7214303588        1.8100036964
H                0.8128111497        0.7092197940        0.8919455208
H               -0.3210387659        1.8538246562        7.5836480979



     Writing config-only to output data dir ./tmp/ti2coh2.save/ :
     XML data file
     NEW-OLD atomic charge density approx. for the potential

     Check: negative core charge=   -0.000005

     negative rho (up, down):  1.497E-03 0.000E+00

     total cpu time spent up to now is      231.6 secs

     Self-consistent Calculation

     iteration #  1     ecut=    40.00 Ry     beta= 0.70
     Davidson diagonalization with overlap
     ethr =  1.00E-06,  avg # of iterations =  9.3

     negative rho (up, down):  1.485E-03 0.000E+00

     total cpu time spent up to now is      233.9 secs

     total energy              =    -471.87196939 Ry
     estimated scf accuracy    <       0.00142069 Ry

     iteration #  2     ecut=    40.00 Ry     beta= 0.70
     Davidson diagonalization with overlap
     ethr =  3.38E-06,  avg # of iterations =  6.2

     negative rho (up, down):  1.734E-03 0.000E+00

     total cpu time spent up to now is      235.1 secs

     total energy              =    -471.87060804 Ry
     estimated scf accuracy    <       0.01698692 Ry

     iteration #  3     ecut=    40.00 Ry     beta= 0.70
     Davidson diagonalization with overlap
     ethr =  3.38E-06,  avg # of iterations = 11.5

     negative rho (up, down):  1.853E-03 0.000E+00

     total cpu time spent up to now is      236.4 secs

     total energy              =    -471.87121755 Ry
     estimated scf accuracy    <       0.01402173 Ry

     iteration #  4     ecut=    40.00 Ry     beta= 0.70
     Davidson diagonalization with overlap
     ethr =  3.38E-06,  avg # of iterations = 11.8

     negative rho (up, down):  1.707E-03 0.000E+00

     total cpu time spent up to now is      237.6 secs

     total energy              =    -471.87194822 Ry
     estimated scf accuracy    <       0.00982689 Ry

     iteration #  5     ecut=    40.00 Ry     beta= 0.70
     Davidson diagonalization with overlap
     ethr =  3.38E-06,  avg # of iterations =  4.5

     negative rho (up, down):  1.576E-03 0.000E+00

     total cpu time spent up to now is      238.6 secs

     total energy              =    -471.87255394 Ry
     estimated scf accuracy    <       0.00013151 Ry

     iteration #  6     ecut=    40.00 Ry     beta= 0.70
     Davidson diagonalization with overlap
     ethr =  3.13E-07,  avg # of iterations =  7.3

     negative rho (up, down):  1.520E-03 0.000E+00

     total cpu time spent up to now is      239.7 secs

     total energy              =    -471.87261536 Ry
     estimated scf accuracy    <       0.00003826 Ry

     iteration #  7     ecut=    40.00 Ry     beta= 0.70
     Davidson diagonalization with overlap
     ethr =  9.11E-08,  avg # of iterations =  2.0

     negative rho (up, down):  1.493E-03 0.000E+00

     total cpu time spent up to now is      240.6 secs

     total energy              =    -471.87262358 Ry
     estimated scf accuracy    <       0.00000643 Ry

     iteration #  8     ecut=    40.00 Ry     beta= 0.70
     Davidson diagonalization with overlap
     ethr =  1.53E-08,  avg # of iterations =  4.9

     negative rho (up, down):  1.493E-03 0.000E+00

     total cpu time spent up to now is      241.6 secs

     total energy              =    -471.87262494 Ry
     estimated scf accuracy    <       0.00000239 Ry

     iteration #  9     ecut=    40.00 Ry     beta= 0.70
     Davidson diagonalization with overlap
     ethr =  5.69E-09,  avg # of iterations =  3.6

     negative rho (up, down):  1.494E-03 0.000E+00

     total cpu time spent up to now is      242.6 secs

     total energy              =    -471.87262488 Ry
     estimated scf accuracy    <       0.00000107 Ry

     iteration # 10     ecut=    40.00 Ry     beta= 0.70
     Davidson diagonalization with overlap
     ethr =  2.56E-09,  avg # of iterations =  5.4

     negative rho (up, down):  1.494E-03 0.000E+00

     total cpu time spent up to now is      243.5 secs

     total energy              =    -471.87262520 Ry
     estimated scf accuracy    <       0.00000047 Ry

     iteration # 11     ecut=    40.00 Ry     beta= 0.70
     Davidson diagonalization with overlap
     ethr =  1.11E-09,  avg # of iterations =  2.3

     negative rho (up, down):  1.494E-03 0.000E+00

     total cpu time spent up to now is      244.4 secs

     total energy              =    -471.87262515 Ry
     estimated scf accuracy    <       0.00000013 Ry

     iteration # 12     ecut=    40.00 Ry     beta= 0.70
     Davidson diagonalization with overlap
     ethr =  3.08E-10,  avg # of iterations =  5.7

     negative rho (up, down):  1.494E-03 0.000E+00

     total cpu time spent up to now is      245.5 secs

     total energy              =    -471.87262523 Ry
     estimated scf accuracy    <       0.00000011 Ry

     iteration # 13     ecut=    40.00 Ry     beta= 0.70
     Davidson diagonalization with overlap
     ethr =  2.58E-10,  avg # of iterations =  4.7

     negative rho (up, down):  1.494E-03 0.000E+00

     total cpu time spent up to now is      246.4 secs

     total energy              =    -471.87262524 Ry
     estimated scf accuracy    <          3.7E-09 Ry

     iteration # 14     ecut=    40.00 Ry     beta= 0.70
     Davidson diagonalization with overlap
     ethr =  8.75E-12,  avg # of iterations =  5.7

     negative rho (up, down):  1.494E-03 0.000E+00

     total cpu time spent up to now is      247.6 secs

     total energy              =    -471.87262525 Ry
     estimated scf accuracy    <          7.1E-09 Ry

     iteration # 15     ecut=    40.00 Ry     beta= 0.70
     Davidson diagonalization with overlap
     ethr =  8.75E-12,  avg # of iterations =  5.0

     negative rho (up, down):  1.494E-03 0.000E+00

     total cpu time spent up to now is      248.5 secs

     End of self-consistent calculation

          k = 0.0000 0.0000 0.0000 (  5509 PWs)   bands (ev):

   -55.4075 -55.2420 -31.8930 -31.5237 -31.5114 -31.4455 -31.3242 -31.3043
   -19.6488 -19.0383  -9.8371  -7.3860  -6.1753  -2.9740  -2.8169  -2.4642
    -2.1752  -1.5537  -0.3574  -0.3454   1.9970   2.2626   2.3254   2.4428
     3.2702

          k = 0.0000 0.2887 0.0000 (  5504 PWs)   bands (ev):

   -55.3780 -55.2192 -31.8314 -31.7360 -31.5351 -31.5143 -31.4537 -31.3477
   -19.4634 -18.8341  -9.1114  -7.2387  -6.2987  -3.7774  -3.0785  -2.8203
    -2.5108  -1.6543  -1.3949  -0.6371   1.1740   2.7573   3.0610   3.3497
     3.7228

          k = 0.0000-0.5773 0.0000 (  5552 PWs)   bands (ev):

   -55.3482 -55.1966 -31.9562 -31.8165 -31.6012 -31.5544 -31.5042 -31.3870
   -19.2813 -18.6273  -8.3428  -7.0745  -6.3486  -4.8461  -3.9210  -2.9507
    -2.5971  -2.3115  -1.1586  -0.7288   0.4028   3.9428   4.1205   4.2747
     4.5239

          k = 0.2500 0.1443 0.0000 (  5504 PWs)   bands (ev):

   -55.3786 -55.2198 -31.8346 -31.6815 -31.5731 -31.5089 -31.4460 -31.3617
   -19.4560 -18.8075  -9.1423  -7.2988  -6.4286  -3.7769  -3.1024  -3.0063
    -2.4417  -1.7977  -1.1726  -0.3729   1.3654   2.6236   3.1087   3.1386
     3.7733

          k = 0.2500 0.4330 0.0000 (  5528 PWs)   bands (ev):

   -55.3488 -55.1972 -31.8494 -31.7594 -31.6922 -31.5617 -31.5137 -31.4376
   -19.2710 -18.5949  -8.3653  -7.1739  -6.5429  -4.3466  -3.5671  -3.3880
    -2.9173  -2.0613  -1.6017  -1.1315   2.1198   2.6562   3.6208   4.1219
     4.3558

          k = 0.2500-0.4330 0.0000 (  5528 PWs)   bands (ev):

   -55.3483 -55.1967 -31.8926 -31.7713 -31.6775 -31.5437 -31.4925 -31.4442
   -19.2747 -18.6243  -8.3236  -7.1527  -6.3539  -4.3305  -3.6718  -3.3805
    -2.7949  -2.1876  -1.5796  -1.2178   2.0082   2.3627   3.5923   4.1426
     4.2533

          k = 0.2500-0.1443 0.0000 (  5504 PWs)   bands (ev):

   -55.3781 -55.2194 -31.8310 -31.7323 -31.5389 -31.5129 -31.4549 -31.3447
   -19.4581 -18.8297  -9.1316  -7.2359  -6.3349  -3.7883  -3.0836  -2.8679
    -2.4699  -1.7140  -1.3763  -0.6032   1.2020   2.7625   3.0848   3.3262
     3.7311

          k =-0.5000-0.2887 0.0000 (  5552 PWs)   bands (ev):

   -55.3494 -55.1978 -31.9003 -31.7775 -31.6250 -31.6122 -31.4822 -31.3995
   -19.2631 -18.5639  -8.4169  -7.2307  -6.8220  -4.7432  -3.5529  -3.1871
    -2.6860  -2.4341  -0.8656  -0.3254   0.5836   3.6976   4.1951   4.2458
     4.5529

          k =-0.5000-0.0000 0.0000 (  5528 PWs)   bands (ev):

   -55.3489 -55.1973 -31.8369 -31.7679 -31.6911 -31.5637 -31.5150 -31.4364
   -19.2643 -18.5899  -8.3686  -7.2170  -6.5999  -4.3088  -3.5010  -3.3979
    -2.9293  -2.1797  -1.5649  -1.1029   2.1323   2.6578   3.6589   4.1147
     4.4056

          k =-0.5000-0.8660 0.0000 (  5552 PWs)   bands (ev):

   -55.3484 -55.1970 -31.9479 -31.8165 -31.6060 -31.5517 -31.5069 -31.3840
   -19.2689 -18.6176  -8.3733  -7.1606  -6.4673  -4.6461  -3.8671  -3.0449
    -2.7203  -2.3022  -1.1496  -0.7227   0.4493   4.0030   4.1509   4.2446
     4.5468

     the Fermi energy is     2.2512 ev

!    total energy              =    -471.87262525 Ry
     total all-electron energy =     -3795.176314 Ry
     estimated scf accuracy    <          9.5E-10 Ry
     smearing contrib. (-TS)   =      -0.00211659 Ry
     internal energy E=F+TS    =    -471.87050865 Ry

     The total energy is F=E-TS. E is the sum of the following terms:
     one-electron contribution =   -3227.40074833 Ry
     hartree contribution      =    1620.05492802 Ry
     xc contribution           =     -58.26719915 Ry
     ewald contribution        =    1349.72850094 Ry
     one-center paw contrib.   =    -155.98599013 Ry

     convergence has been achieved in  15 iterations

     negative rho (up, down):  1.494E-03 0.000E+00

     Forces acting on atoms (cartesian axes, Ry/au):

     atom    1 type  1   force =    -0.00236039   -0.00543314   -0.00265420
     atom    2 type  1   force =     0.00012691    0.00084415    0.00383770
     atom    3 type  2   force =     0.00025633   -0.00220338   -0.00789978
     atom    4 type  3   force =     0.01027922   -0.00019404   -0.00772900
     atom    5 type  3   force =    -0.00043259    0.01615148    0.00564548
     atom    6 type  4   force =     0.00603012    0.00001671   -0.00236668
     atom    7 type  4   force =    -0.01389960   -0.00918179    0.01116648

     Total force =     0.032054     Total SCF correction =     0.000125
     Energy error            =      2.0E-03 Ry
     Gradient error          =      1.6E-02 Ry/Bohr

     number of scf cycles    =  11
     number of bfgs steps    =  10

     energy             old  =    -471.8705796974 Ry
     energy             new  =    -471.8726252451 Ry

     CASE: energy            _new < energy            _old

     new trust radius        =       0.0690657372 bohr
     new conv_thr            =       0.0000000016 Ry


ATOMIC_POSITIONS (angstrom)
Ti              -0.3371391704        1.7029385774        3.0993092887
Ti               1.1436631611        0.8472093975        5.4088938023
C                2.7090711109       -0.0356517622        4.2840569347
O                0.2636062936        2.1210285816        6.8662094695
O                1.1377182918        0.7534367739        1.8274569211
H                0.8237718381        0.7076187096        0.9029443650
H               -0.3213415251        1.8494797222        7.5846092187



     Writing config-only to output data dir ./tmp/ti2coh2.save/ :
     XML data file
     NEW-OLD atomic charge density approx. for the potential

     Check: negative core charge=   -0.000005

     negative rho (up, down):  1.496E-03 0.000E+00

     total cpu time spent up to now is      249.1 secs

     Self-consistent Calculation

     iteration #  1     ecut=    40.00 Ry     beta= 0.70
     Davidson diagonalization with overlap
     ethr =  1.00E-06,  avg # of iterations =  9.1

     negative rho (up, down):  1.479E-03 0.000E+00

     total cpu time spent up to now is      251.3 secs

     total energy              =    -471.87313810 Ry
     estimated scf accuracy    <       0.00120771 Ry

     iteration #  2     ecut=    40.00 Ry     beta= 0.70
     Davidson diagonalization with overlap
     ethr =  2.88E-06,  avg # of iterations = 13.3

     negative rho (up, down):  1.725E-03 0.000E+00

     total cpu time spent up to now is      252.8 secs

     total energy              =    -471.87098999 Ry
     estimated scf accuracy    <       0.03163839 Ry

     iteration #  3     ecut=    40.00 Ry     beta= 0.70
     Davidson diagonalization with overlap
     c_bands:  1 eigenvalues not converged
     c_bands:  1 eigenvalues not converged
     ethr =  2.88E-06,  avg # of iterations = 13.5

     negative rho (up, down):  1.756E-03 0.000E+00

     total cpu time spent up to now is      254.3 secs

     total energy              =    -471.87261259 Ry
     estimated scf accuracy    <       0.01323748 Ry

     iteration #  4     ecut=    40.00 Ry     beta= 0.70
     Davidson diagonalization with overlap
     ethr =  2.88E-06,  avg # of iterations =  6.4

     negative rho (up, down):  1.559E-03 0.000E+00

     total cpu time spent up to now is      257.4 secs

     total energy              =    -471.87346726 Ry
     estimated scf accuracy    <       0.00249228 Ry

     iteration #  5     ecut=    40.00 Ry     beta= 0.70
     Davidson diagonalization with overlap
     ethr =  2.88E-06,  avg # of iterations =  2.1

     negative rho (up, down):  1.519E-03 0.000E+00

     total cpu time spent up to now is      258.3 secs

     total energy              =    -471.87365855 Ry
     estimated scf accuracy    <       0.00004574 Ry

     iteration #  6     ecut=    40.00 Ry     beta= 0.70
     Davidson diagonalization with overlap
     ethr =  1.09E-07,  avg # of iterations =  7.0

     negative rho (up, down):  1.488E-03 0.000E+00

     total cpu time spent up to now is      259.4 secs

     total energy              =    -471.87368852 Ry
     estimated scf accuracy    <       0.00002938 Ry

     iteration #  7     ecut=    40.00 Ry     beta= 0.70
     Davidson diagonalization with overlap
     ethr =  6.99E-08,  avg # of iterations =  2.0

     negative rho (up, down):  1.487E-03 0.000E+00

     total cpu time spent up to now is      260.2 secs

     total energy              =    -471.87369078 Ry
     estimated scf accuracy    <       0.00000261 Ry

     iteration #  8     ecut=    40.00 Ry     beta= 0.70
     Davidson diagonalization with overlap
     ethr =  6.20E-09,  avg # of iterations =  5.9

     negative rho (up, down):  1.488E-03 0.000E+00

     total cpu time spent up to now is      261.2 secs

     total energy              =    -471.87369149 Ry
     estimated scf accuracy    <       0.00000063 Ry

     iteration #  9     ecut=    40.00 Ry     beta= 0.70
     Davidson diagonalization with overlap
     ethr =  1.50E-09,  avg # of iterations =  4.3

     negative rho (up, down):  1.488E-03 0.000E+00

     total cpu time spent up to now is      262.2 secs

     total energy              =    -471.87369159 Ry
     estimated scf accuracy    <       0.00000025 Ry

     iteration # 10     ecut=    40.00 Ry     beta= 0.70
     Davidson diagonalization with overlap
     ethr =  6.05E-10,  avg # of iterations =  2.3

     negative rho (up, down):  1.488E-03 0.000E+00

     total cpu time spent up to now is      263.1 secs

     total energy              =    -471.87369160 Ry
     estimated scf accuracy    <       0.00000007 Ry

     iteration # 11     ecut=    40.00 Ry     beta= 0.70
     Davidson diagonalization with overlap
     ethr =  1.58E-10,  avg # of iterations =  5.3

     negative rho (up, down):  1.488E-03 0.000E+00

     total cpu time spent up to now is      264.1 secs

     End of self-consistent calculation

          k = 0.0000 0.0000 0.0000 (  5509 PWs)   bands (ev):

   -55.4176 -55.2525 -31.9001 -31.5372 -31.5190 -31.4608 -31.3352 -31.3151
   -19.7459 -19.0384  -9.8560  -7.4680  -6.2022  -3.0671  -2.9835  -2.4938
    -2.1889  -1.5417  -0.3365  -0.3288   1.9809   2.2697   2.3094   2.4222
     3.2395

          k = 0.0000 0.2887 0.0000 (  5504 PWs)   bands (ev):

   -55.3882 -55.2296 -31.8366 -31.7459 -31.5460 -31.5288 -31.4653 -31.3625
   -19.5607 -18.8342  -9.1308  -7.3231  -6.3205  -3.9005  -3.1054  -2.9696
    -2.5154  -1.6450  -1.3828  -0.6009   1.1844   2.7479   3.0520   3.3192
     3.7039

          k = 0.0000-0.5773 0.0000 (  5552 PWs)   bands (ev):

   -55.3585 -55.2067 -31.9642 -31.8194 -31.6225 -31.5729 -31.5065 -31.4022
   -19.3797 -18.6277  -8.3576  -7.1714  -6.3581  -4.9301  -3.9546  -3.1194
    -2.6056  -2.3078  -1.1334  -0.7002   0.4151   3.9111   4.0985   4.2722
     4.5064

          k = 0.2500 0.1443 0.0000 (  5504 PWs)   bands (ev):

   -55.3886 -55.2304 -31.8408 -31.6970 -31.5846 -31.5202 -31.4582 -31.3715
   -19.5544 -18.8081  -9.1556  -7.3919  -6.4476  -3.8997  -3.1248  -3.1047
    -2.4585  -1.8056  -1.1833  -0.3764   1.3479   2.6282   3.0953   3.1372
     3.7659

          k = 0.2500 0.4330 0.0000 (  5528 PWs)   bands (ev):

   -55.3589 -55.2075 -31.8539 -31.7700 -31.7078 -31.5743 -31.5278 -31.4483
   -19.3704 -18.5957  -8.3726  -7.2742  -6.5509  -4.4643  -3.6069  -3.4641
    -2.9363  -2.0873  -1.6068  -1.1353   2.1520   2.6467   3.6344   4.1201
     4.3456

          k = 0.2500-0.4330 0.0000 (  5528 PWs)   bands (ev):

   -55.3584 -55.2070 -31.9047 -31.7790 -31.6898 -31.5600 -31.5011 -31.4553
   -19.3750 -18.6245  -8.3315  -7.2403  -6.3697  -4.4539  -3.6840  -3.5036
    -2.8101  -2.1844  -1.5861  -1.2225   2.0315   2.3740   3.5919   4.1373
     4.2284

          k = 0.2500-0.1443 0.0000 (  5504 PWs)   bands (ev):

   -55.3881 -55.2299 -31.8383 -31.7498 -31.5509 -31.5225 -31.4658 -31.3542
   -19.5573 -18.8297  -9.1448  -7.3233  -6.3604  -3.9082  -3.1211  -2.9791
    -2.4727  -1.7038  -1.3772  -0.6125   1.1918   2.7780   3.0649   3.3070
     3.7390

          k =-0.5000-0.2887 0.0000 (  5552 PWs)   bands (ev):

   -55.3593 -55.2084 -31.9163 -31.7872 -31.6337 -31.6220 -31.4957 -31.4092
   -19.3641 -18.5653  -8.4210  -7.3262  -6.8282  -4.8478  -3.5720  -3.2884
    -2.7048  -2.4613  -0.9001  -0.3344   0.5696   3.6906   4.2050   4.2268
     4.5573

          k =-0.5000-0.0000 0.0000 (  5528 PWs)   bands (ev):

   -55.3588 -55.2079 -31.8601 -31.7746 -31.6993 -31.5728 -31.5208 -31.4511
   -19.3662 -18.5906  -8.3695  -7.3097  -6.6095  -4.4300  -3.5663  -3.4626
    -2.9404  -2.1820  -1.5878  -1.1235   2.1344   2.6381   3.6741   4.1031
     4.3944

          k =-0.5000-0.8660 0.0000 (  5552 PWs)   bands (ev):

   -55.3582 -55.2074 -31.9685 -31.8279 -31.6080 -31.5641 -31.5189 -31.3935
   -19.3718 -18.6176  -8.3761  -7.2380  -6.4854  -4.7773  -3.8817  -3.1588
    -2.7173  -2.3196  -1.1579  -0.7431   0.4411   3.9775   4.1353   4.2595
     4.5465

     the Fermi energy is     2.2609 ev

!    total energy              =    -471.87369161 Ry
     total all-electron energy =     -3795.177381 Ry
     estimated scf accuracy    <          1.3E-09 Ry
     smearing contrib. (-TS)   =      -0.00233014 Ry
     internal energy E=F+TS    =    -471.87136147 Ry

     The total energy is F=E-TS. E is the sum of the following terms:
     one-electron contribution =   -3232.49532301 Ry
     hartree contribution      =    1622.56003706 Ry
     xc contribution           =     -58.26756228 Ry
     ewald contribution        =    1352.31760324 Ry
     one-center paw contrib.   =    -155.98611648 Ry

     convergence has been achieved in  11 iterations

     negative rho (up, down):  1.488E-03 0.000E+00

     Forces acting on atoms (cartesian axes, Ry/au):

     atom    1 type  1   force =    -0.00107713    0.00227951    0.00662925
     atom    2 type  1   force =     0.00061424   -0.00544374    0.00297660
     atom    3 type  2   force =    -0.00098748    0.00144841   -0.00734454
     atom    4 type  3   force =     0.00648960    0.00003645   -0.00467128
     atom    5 type  3   force =    -0.00208136    0.00858721   -0.00505487
     atom    6 type  4   force =     0.00824722    0.00124417   -0.00025796
     atom    7 type  4   force =    -0.01120509   -0.00815201    0.00772279

     Total force =     0.025200     Total SCF correction =     0.000171
     Energy error            =      1.1E-03 Ry
     Gradient error          =      1.1E-02 Ry/Bohr

     number of scf cycles    =  12
     number of bfgs steps    =  11

     energy             old  =    -471.8726252451 Ry
     energy             new  =    -471.8736916111 Ry

     CASE: energy            _new < energy            _old

     new trust radius        =       0.0293088192 bohr
     new conv_thr            =       0.0000000011 Ry


ATOMIC_POSITIONS (angstrom)
Ti              -0.3395940172        1.6998023242        3.0966148364
Ti               1.1440287341        0.8472688121        5.4114040367
C                2.7088411230       -0.0379523380        4.2771849933
O                0.2664195371        2.1165544800        6.8720217193
O                1.1391175168        0.7688823992        1.8273111303
H                0.8290871751        0.7083526463        0.9015168485
H               -0.3285500689        1.8431516762        7.5874264357



     Writing config-only to output data dir ./tmp/ti2coh2.save/ :
     XML data file
     NEW-OLD atomic charge density approx. for the potential

     Check: negative core charge=   -0.000005

     negative rho (up, down):  1.482E-03 0.000E+00

     total cpu time spent up to now is      264.7 secs

     Self-consistent Calculation

     iteration #  1     ecut=    40.00 Ry     beta= 0.70
     Davidson diagonalization with overlap
     ethr =  1.00E-06,  avg # of iterations =  6.3

     negative rho (up, down):  1.471E-03 0.000E+00

     total cpu time spent up to now is      266.3 secs

     total energy              =    -471.87399783 Ry
     estimated scf accuracy    <       0.00035175 Ry

     iteration #  2     ecut=    40.00 Ry     beta= 0.70
     Davidson diagonalization with overlap
     c_bands:  1 eigenvalues not converged
     c_bands:  1 eigenvalues not converged
     ethr =  8.38E-07,  avg # of iterations = 15.4

     negative rho (up, down):  1.527E-03 0.000E+00

     total cpu time spent up to now is      267.9 secs

     total energy              =    -471.87231714 Ry
     estimated scf accuracy    <       0.04235426 Ry

     iteration #  3     ecut=    40.00 Ry     beta= 0.70
     Davidson diagonalization with overlap
     c_bands:  2 eigenvalues not converged
     ethr =  8.38E-07,  avg # of iterations = 15.0

     negative rho (up, down):  1.492E-03 0.000E+00

     total cpu time spent up to now is      269.5 secs

     total energy              =    -471.87418712 Ry
     estimated scf accuracy    <       0.00011191 Ry

     iteration #  4     ecut=    40.00 Ry     beta= 0.70
     Davidson diagonalization with overlap
     ethr =  2.66E-07,  avg # of iterations =  2.4

     negative rho (up, down):  1.493E-03 0.000E+00

     total cpu time spent up to now is      270.4 secs

     total energy              =    -471.87419772 Ry
     estimated scf accuracy    <       0.00002072 Ry

     iteration #  5     ecut=    40.00 Ry     beta= 0.70
     Davidson diagonalization with overlap
     ethr =  4.93E-08,  avg # of iterations =  5.1

     negative rho (up, down):  1.490E-03 0.000E+00

     total cpu time spent up to now is      271.3 secs

     total energy              =    -471.87419736 Ry
     estimated scf accuracy    <       0.00008553 Ry

     iteration #  6     ecut=    40.00 Ry     beta= 0.70
     Davidson diagonalization with overlap
     ethr =  4.93E-08,  avg # of iterations =  2.1

     negative rho (up, down):  1.488E-03 0.000E+00

     total cpu time spent up to now is      272.2 secs

     total energy              =    -471.87420534 Ry
     estimated scf accuracy    <       0.00000601 Ry

     iteration #  7     ecut=    40.00 Ry     beta= 0.70
     Davidson diagonalization with overlap
     ethr =  1.43E-08,  avg # of iterations =  3.3

     negative rho (up, down):  1.485E-03 0.000E+00

     total cpu time spent up to now is      273.1 secs

     total energy              =    -471.87420683 Ry
     estimated scf accuracy    <       0.00000024 Ry

     iteration #  8     ecut=    40.00 Ry     beta= 0.70
     Davidson diagonalization with overlap
     ethr =  5.60E-10,  avg # of iterations =  8.7

     negative rho (up, down):  1.486E-03 0.000E+00

     total cpu time spent up to now is      274.4 secs

     total energy              =    -471.87420709 Ry
     estimated scf accuracy    <       0.00000016 Ry

     iteration #  9     ecut=    40.00 Ry     beta= 0.70
     Davidson diagonalization with overlap
     ethr =  3.86E-10,  avg # of iterations =  2.2

     negative rho (up, down):  1.486E-03 0.000E+00

     total cpu time spent up to now is      275.3 secs

     total energy              =    -471.87420709 Ry
     estimated scf accuracy    <       0.00000006 Ry

     iteration # 10     ecut=    40.00 Ry     beta= 0.70
     Davidson diagonalization with overlap
     ethr =  1.48E-10,  avg # of iterations =  5.1

     negative rho (up, down):  1.486E-03 0.000E+00

     total cpu time spent up to now is      276.3 secs

     total energy              =    -471.87420711 Ry
     estimated scf accuracy    <          8.4E-09 Ry

     iteration # 11     ecut=    40.00 Ry     beta= 0.70
     Davidson diagonalization with overlap
     ethr =  2.01E-11,  avg # of iterations =  3.7

     negative rho (up, down):  1.486E-03 0.000E+00

     total cpu time spent up to now is      277.2 secs

     total energy              =    -471.87420711 Ry
     estimated scf accuracy    <          2.7E-09 Ry

     iteration # 12     ecut=    40.00 Ry     beta= 0.70
     Davidson diagonalization with overlap
     ethr =  6.50E-12,  avg # of iterations =  5.9

     negative rho (up, down):  1.486E-03 0.000E+00

     total cpu time spent up to now is      278.3 secs

     total energy              =    -471.87420711 Ry
     estimated scf accuracy    <          1.7E-09 Ry

     iteration # 13     ecut=    40.00 Ry     beta= 0.70
     Davidson diagonalization with overlap
     ethr =  3.94E-12,  avg # of iterations =  3.8

     negative rho (up, down):  1.486E-03 0.000E+00

     total cpu time spent up to now is      279.2 secs

     End of self-consistent calculation

          k = 0.0000 0.0000 0.0000 (  5509 PWs)   bands (ev):

   -55.4308 -55.2704 -31.9113 -31.5521 -31.5338 -31.4756 -31.3514 -31.3319
   -19.7598 -19.0156  -9.8651  -7.4738  -6.1869  -3.0781  -3.0148  -2.5063
    -2.1777  -1.5456  -0.3288  -0.3185   1.9624   2.2672   2.2965   2.4038
     3.2492

          k = 0.0000 0.2887 0.0000 (  5504 PWs)   bands (ev):

   -55.4015 -55.2475 -31.8479 -31.7582 -31.5619 -31.5435 -31.4816 -31.3796
   -19.5743 -18.8103  -9.1420  -7.3342  -6.2975  -3.9184  -3.1170  -2.9911
    -2.5147  -1.6498  -1.3904  -0.5908   1.1791   2.7376   3.0388   3.3020
     3.6826

          k = 0.0000-0.5773 0.0000 (  5552 PWs)   bands (ev):

   -55.3718 -55.2247 -31.9762 -31.8298 -31.6388 -31.5887 -31.5216 -31.4193
   -19.3928 -18.6023  -8.3680  -7.1889  -6.3366  -4.9378  -3.9552  -3.1567
    -2.6114  -2.3148  -1.1406  -0.6971   0.4112   3.8783   4.0821   4.2654
     4.4946

          k = 0.2500 0.1443 0.0000 (  5504 PWs)   bands (ev):

   -55.4018 -55.2483 -31.8518 -31.7116 -31.5981 -31.5368 -31.4749 -31.3872
   -19.5683 -18.7833  -9.1622  -7.4060  -6.4358  -3.9202  -3.1281  -3.1094
    -2.4505  -1.8143  -1.1963  -0.3813   1.3349   2.6140   3.0821   3.1296
     3.7472

          k = 0.2500 0.4330 0.0000 (  5528 PWs)   bands (ev):

   -55.3721 -55.2255 -31.8656 -31.7824 -31.7219 -31.5900 -31.5447 -31.4645
   -19.3840 -18.5695  -8.3784  -7.2927  -6.5382  -4.4805  -3.6100  -3.4696
    -2.9378  -2.1038  -1.6134  -1.1493   2.1499   2.6321   3.6209   4.1025
     4.3313

          k = 0.2500-0.4330 0.0000 (  5528 PWs)   bands (ev):

   -55.3716 -55.2250 -31.9175 -31.7902 -31.7036 -31.5765 -31.5174 -31.4716
   -19.3889 -18.5989  -8.3398  -7.2535  -6.3508  -4.4747  -3.6836  -3.5252
    -2.8091  -2.1938  -1.5953  -1.2319   2.0265   2.3731   3.5716   4.1179
     4.2138

          k = 0.2500-0.1443 0.0000 (  5504 PWs)   bands (ev):

   -55.4013 -55.2479 -31.8500 -31.7636 -31.5668 -31.5363 -31.4821 -31.3707
   -19.5715 -18.8054  -9.1530  -7.3357  -6.3423  -3.9258  -3.1303  -2.9925
    -2.4673  -1.7026  -1.3895  -0.6134   1.1798   2.7723   3.0483   3.2936
     3.7222

          k =-0.5000-0.2887 0.0000 (  5552 PWs)   bands (ev):

   -55.3724 -55.2264 -31.9308 -31.7997 -31.6475 -31.6360 -31.5130 -31.4248
   -19.3783 -18.5382  -8.4224  -7.3429  -6.8283  -4.8659  -3.5646  -3.2913
    -2.6988  -2.4754  -0.9245  -0.3451   0.5601   3.6720   4.1857   4.2154
     4.5432

          k =-0.5000-0.0000 0.0000 (  5528 PWs)   bands (ev):

   -55.3719 -55.2259 -31.8763 -31.7852 -31.7127 -31.5874 -31.5363 -31.4683
   -19.3807 -18.5641  -8.3737  -7.3244  -6.6011  -4.4481  -3.5783  -3.4591
    -2.9374  -2.1844  -1.6011  -1.1427   2.1259   2.6213   3.6556   4.0819
     4.3766

          k =-0.5000-0.8660 0.0000 (  5552 PWs)   bands (ev):

   -55.3714 -55.2254 -31.9834 -31.8400 -31.6200 -31.5793 -31.5357 -31.4099
   -19.3865 -18.5916  -8.3814  -7.2475  -6.4749  -4.8043  -3.8724  -3.1741
    -2.7152  -2.3260  -1.1745  -0.7472   0.4300   3.9419   4.1200   4.2575
     4.5345

     the Fermi energy is     2.2544 ev

!    total energy              =    -471.87420711 Ry
     total all-electron energy =     -3795.177896 Ry
     estimated scf accuracy    <          6.7E-10 Ry
     smearing contrib. (-TS)   =      -0.00234885 Ry
     internal energy E=F+TS    =    -471.87185826 Ry

     The total energy is F=E-TS. E is the sum of the following terms:
     one-electron contribution =   -3229.55417668 Ry
     hartree contribution      =    1621.07043991 Ry
     xc contribution           =     -58.25764652 Ry
     ewald contribution        =    1350.85548886 Ry
     one-center paw contrib.   =    -155.98596383 Ry

     convergence has been achieved in  13 iterations

     negative rho (up, down):  1.486E-03 0.000E+00

     Forces acting on atoms (cartesian axes, Ry/au):

     atom    1 type  1   force =     0.00042888    0.00528559    0.00690508
     atom    2 type  1   force =     0.00038117   -0.00655493    0.00013096
     atom    3 type  2   force =    -0.00167945    0.00181893   -0.00275093
     atom    4 type  3   force =     0.00130599   -0.00137027   -0.00019729
     atom    5 type  3   force =    -0.00317702    0.00493355   -0.00658711
     atom    6 type  4   force =     0.00883133    0.00176983    0.00095050
     atom    7 type  4   force =    -0.00609090   -0.00588272    0.00154879

     Total force =     0.019241     Total SCF correction =     0.000140
     Energy error            =      5.2E-04 Ry
     Gradient error          =      8.8E-03 Ry/Bohr

     number of scf cycles    =  13
     number of bfgs steps    =  12

     energy             old  =    -471.8736916111 Ry
     energy             new  =    -471.8742071093 Ry

     CASE: energy            _new < energy            _old

     new trust radius        =       0.0322397011 bohr
     new conv_thr            =       0.0000000005 Ry


ATOMIC_POSITIONS (angstrom)
Ti              -0.3415184532        1.7013085710        3.0968610693
Ti               1.1447078121        0.8429458415        5.4147771029
C                2.7075107995       -0.0390975304        4.2697075150
O                0.2699264697        2.1114750020        6.8816603657
O                1.1413462413        0.7853220984        1.8233324053
H                0.8367872410        0.7107630131        0.8970943856
H               -0.3394101105        1.8333430043        7.5900471563



     Writing config-only to output data dir ./tmp/ti2coh2.save/ :
     XML data file
     NEW-OLD atomic charge density approx. for the potential

     Check: negative core charge=   -0.000005

     negative rho (up, down):  1.475E-03 0.000E+00

     total cpu time spent up to now is      279.8 secs

     Self-consistent Calculation

     iteration #  1     ecut=    40.00 Ry     beta= 0.70
     Davidson diagonalization with overlap
     ethr =  1.00E-06,  avg # of iterations =  7.4

     negative rho (up, down):  1.470E-03 0.000E+00

     total cpu time spent up to now is      281.6 secs

     total energy              =    -471.87446525 Ry
     estimated scf accuracy    <       0.00044600 Ry

     iteration #  2     ecut=    40.00 Ry     beta= 0.70
     Davidson diagonalization with overlap
     c_bands:  1 eigenvalues not converged
     ethr =  1.06E-06,  avg # of iterations = 16.0

     negative rho (up, down):  1.524E-03 0.000E+00

     total cpu time spent up to now is      283.2 secs

     total energy              =    -471.87269145 Ry
     estimated scf accuracy    <       0.04346145 Ry

     iteration #  3     ecut=    40.00 Ry     beta= 0.70
     Davidson diagonalization with overlap
     c_bands:  1 eigenvalues not converged
     ethr =  1.06E-06,  avg # of iterations = 15.0

     negative rho (up, down):  1.507E-03 0.000E+00

     total cpu time spent up to now is      284.8 secs

     total energy              =    -471.87463052 Ry
     estimated scf accuracy    <       0.00035282 Ry

     iteration #  4     ecut=    40.00 Ry     beta= 0.70
     Davidson diagonalization with overlap
     ethr =  8.40E-07,  avg # of iterations =  3.4

     negative rho (up, down):  1.496E-03 0.000E+00

     total cpu time spent up to now is      285.8 secs

     total energy              =    -471.87461557 Ry
     estimated scf accuracy    <       0.00096722 Ry

     iteration #  5     ecut=    40.00 Ry     beta= 0.70
     Davidson diagonalization with overlap
     ethr =  8.40E-07,  avg # of iterations =  1.8

     negative rho (up, down):  1.487E-03 0.000E+00

     total cpu time spent up to now is      286.6 secs

     total energy              =    -471.87470534 Ry
     estimated scf accuracy    <       0.00002120 Ry

     iteration #  6     ecut=    40.00 Ry     beta= 0.70
     Davidson diagonalization with overlap
     ethr =  5.05E-08,  avg # of iterations =  4.9

     negative rho (up, down):  1.485E-03 0.000E+00

     total cpu time spent up to now is      287.6 secs

     total energy              =    -471.87471009 Ry
     estimated scf accuracy    <       0.00000391 Ry

     iteration #  7     ecut=    40.00 Ry     beta= 0.70
     Davidson diagonalization with overlap
     ethr =  9.32E-09,  avg # of iterations =  4.6

     negative rho (up, down):  1.483E-03 0.000E+00

     total cpu time spent up to now is      288.6 secs

     total energy              =    -471.87471117 Ry
     estimated scf accuracy    <       0.00000042 Ry

     iteration #  8     ecut=    40.00 Ry     beta= 0.70
     Davidson diagonalization with overlap
     ethr =  9.97E-10,  avg # of iterations =  5.5

     negative rho (up, down):  1.484E-03 0.000E+00

     total cpu time spent up to now is      291.9 secs

     total energy              =    -471.87471136 Ry
     estimated scf accuracy    <       0.00000017 Ry

     iteration #  9     ecut=    40.00 Ry     beta= 0.70
     Davidson diagonalization with overlap
     ethr =  4.01E-10,  avg # of iterations =  4.4

     negative rho (up, down):  1.484E-03 0.000E+00

     total cpu time spent up to now is      292.9 secs

     total energy              =    -471.87471139 Ry
     estimated scf accuracy    <       0.00000004 Ry

     iteration # 10     ecut=    40.00 Ry     beta= 0.70
     Davidson diagonalization with overlap
     ethr =  9.47E-11,  avg # of iterations =  5.2

     negative rho (up, down):  1.484E-03 0.000E+00

     total cpu time spent up to now is      293.9 secs

     total energy              =    -471.87471140 Ry
     estimated scf accuracy    <       0.00000001 Ry

     iteration # 11     ecut=    40.00 Ry     beta= 0.70
     Davidson diagonalization with overlap
     ethr =  2.54E-11,  avg # of iterations =  4.8

     negative rho (up, down):  1.483E-03 0.000E+00

     total cpu time spent up to now is      294.9 secs

     total energy              =    -471.87471140 Ry
     estimated scf accuracy    <          4.2E-09 Ry

     iteration # 12     ecut=    40.00 Ry     beta= 0.70
     Davidson diagonalization with overlap
     ethr =  9.93E-12,  avg # of iterations =  4.3

     negative rho (up, down):  1.483E-03 0.000E+00

     total cpu time spent up to now is      296.0 secs

     total energy              =    -471.87471140 Ry
     estimated scf accuracy    <          6.2E-10 Ry

     iteration # 13     ecut=    40.00 Ry     beta= 0.70
     Davidson diagonalization with overlap
     ethr =  1.48E-12,  avg # of iterations =  3.7

     negative rho (up, down):  1.483E-03 0.000E+00

     total cpu time spent up to now is      296.9 secs

     End of self-consistent calculation

          k = 0.0000 0.0000 0.0000 (  5509 PWs)   bands (ev):

   -55.4483 -55.2933 -31.9275 -31.5698 -31.5537 -31.4939 -31.3714 -31.3536
   -19.7572 -18.9802  -9.8771  -7.4635  -6.1528  -3.0669  -3.0096  -2.5232
    -2.1524  -1.5509  -0.3327  -0.3202   1.9422   2.2587   2.2770   2.3800
     3.2755

          k = 0.0000 0.2887 0.0000 (  5504 PWs)   bands (ev):

   -55.4189 -55.2705 -31.8650 -31.7748 -31.5813 -31.5617 -31.5022 -31.3997
   -19.5712 -18.7733  -9.1566  -7.3307  -6.2545  -3.9104  -3.1134  -2.9868
    -2.5118  -1.6657  -1.4047  -0.5976   1.1639   2.7246   3.0217   3.2844
     3.6614

          k = 0.0000-0.5773 0.0000 (  5552 PWs)   bands (ev):

   -55.3892 -55.2479 -31.9933 -31.8466 -31.6559 -31.6066 -31.5435 -31.4391
   -19.3890 -18.5633  -8.3839  -7.1907  -6.2998  -4.9254  -3.9424  -3.1635
    -2.6223  -2.3204  -1.1613  -0.7093   0.3971   3.8508   4.0640   4.2511
     4.4815

          k = 0.2500 0.1443 0.0000 (  5504 PWs)   bands (ev):

   -55.4192 -55.2713 -31.8682 -31.7294 -31.6159 -31.5576 -31.4952 -31.4076
   -19.5655 -18.7451  -9.1723  -7.4044  -6.4091  -3.9157  -3.1136  -3.0977
    -2.4275  -1.8273  -1.2191  -0.3943   1.3157   2.5918   3.0659   3.1161
     3.7227

          k = 0.2500 0.4330 0.0000 (  5528 PWs)   bands (ev):

   -55.3894 -55.2487 -31.8835 -31.7989 -31.7392 -31.6092 -31.5651 -31.4850
   -19.3806 -18.5293  -8.3898  -7.2950  -6.5135  -4.4723  -3.5974  -3.4570
    -2.9314  -2.1223  -1.6253  -1.1707   2.1314   2.6083   3.6014   4.0765
     4.3127

          k = 0.2500-0.4330 0.0000 (  5528 PWs)   bands (ev):

   -55.3890 -55.2482 -31.9342 -31.8062 -31.7214 -31.5954 -31.5389 -31.4921
   -19.3857 -18.5594  -8.3542  -7.2513  -6.3155  -4.4718  -3.6750  -3.5221
    -2.8011  -2.2097  -1.6107  -1.2463   2.0073   2.3623   3.5459   4.0960
     4.1984

          k = 0.2500-0.1443 0.0000 (  5504 PWs)   bands (ev):

   -55.4187 -55.2709 -31.8669 -31.7797 -31.5860 -31.5551 -31.5024 -31.3924
   -19.5690 -18.7680  -9.1650  -7.3331  -6.3054  -3.9179  -3.1240  -2.9840
    -2.4589  -1.7078  -1.4062  -0.6215   1.1614   2.7565   3.0298   3.2779
     3.6976

          k =-0.5000-0.2887 0.0000 (  5552 PWs)   bands (ev):

   -55.3897 -55.2495 -31.9486 -31.8165 -31.6655 -31.6554 -31.5336 -31.4451
   -19.3753 -18.4965  -8.4294  -7.3428  -6.8221  -4.8651  -3.5437  -3.2674
    -2.6782  -2.4868  -0.9521  -0.3628   0.5427   3.6479   4.1556   4.2003
     4.5227

          k =-0.5000-0.0000 0.0000 (  5528 PWs)   bands (ev):

   -55.3893 -55.2490 -31.8940 -31.8003 -31.7318 -31.6063 -31.5575 -31.4888
   -19.3781 -18.5234  -8.3852  -7.3221  -6.5820  -4.4433  -3.5703  -3.4387
    -2.9246  -2.1863  -1.6164  -1.1678   2.1085   2.5978   3.6256   4.0548
     4.3532

          k =-0.5000-0.8660 0.0000 (  5552 PWs)   bands (ev):

   -55.3888 -55.2486 -32.0002 -31.8557 -31.6381 -31.5985 -31.5566 -31.4313
   -19.3841 -18.5517  -8.3935  -7.2410  -6.4509  -4.8121  -3.8510  -3.1643
    -2.7126  -2.3235  -1.1959  -0.7546   0.4116   3.9031   4.1003   4.2491
     4.5160

     the Fermi energy is     2.2374 ev

!    total energy              =    -471.87471140 Ry
     total all-electron energy =     -3795.178400 Ry
     estimated scf accuracy    <          1.3E-10 Ry
     smearing contrib. (-TS)   =      -0.00232041 Ry
     internal energy E=F+TS    =    -471.87239099 Ry

     The total energy is F=E-TS. E is the sum of the following terms:
     one-electron contribution =   -3225.15055562 Ry
     hartree contribution      =    1618.85266108 Ry
     xc contribution           =     -58.24603544 Ry
     ewald contribution        =    1348.65732547 Ry
     one-center paw contrib.   =    -155.98578648 Ry

     convergence has been achieved in  13 iterations

     negative rho (up, down):  1.483E-03 0.000E+00

     Forces acting on atoms (cartesian axes, Ry/au):

     atom    1 type  1   force =     0.00167849    0.00675346    0.00358478
     atom    2 type  1   force =    -0.00015524   -0.00569645   -0.00173821
     atom    3 type  2   force =    -0.00173062    0.00136655    0.00301127
     atom    4 type  3   force =    -0.00433474   -0.00312883    0.00365404
     atom    5 type  3   force =    -0.00379850    0.00189451   -0.00447416
     atom    6 type  4   force =     0.00861737    0.00206613    0.00102183
     atom    7 type  4   force =    -0.00027676   -0.00325537   -0.00505955

     Total force =     0.017508     Total SCF correction =     0.000026
     Energy error            =      5.0E-04 Ry
     Gradient error          =      8.6E-03 Ry/Bohr

     number of scf cycles    =  14
     number of bfgs steps    =  13

     energy             old  =    -471.8742071093 Ry
     energy             new  =    -471.8747114034 Ry

     CASE: energy            _new < energy            _old

     new trust radius        =       0.0384337890 bohr
     new conv_thr            =       0.0000000005 Ry


ATOMIC_POSITIONS (angstrom)
Ti              -0.3423690582        1.7066628240        3.0991271613
Ti               1.1450065881        0.8350196449        5.4161536100
C                2.7049238477       -0.0397668133        4.2641160034
O                0.2700702493        2.1033176567        6.8888639033
O                1.1423548453        0.8055719444        1.8217285649
H                0.8501511518        0.7148759721        0.8932721238
H               -0.3507876239        1.8203787713        7.5902186333



     Writing config-only to output data dir ./tmp/ti2coh2.save/ :
     XML data file
     NEW-OLD atomic charge density approx. for the potential

     Check: negative core charge=   -0.000005

     negative rho (up, down):  1.472E-03 0.000E+00

     total cpu time spent up to now is      297.6 secs

     Self-consistent Calculation

     iteration #  1     ecut=    40.00 Ry     beta= 0.70
     Davidson diagonalization with overlap
     ethr =  1.00E-06,  avg # of iterations =  8.1

     negative rho (up, down):  1.471E-03 0.000E+00

     total cpu time spent up to now is      299.5 secs

     total energy              =    -471.87499657 Ry
     estimated scf accuracy    <       0.00038521 Ry

     iteration #  2     ecut=    40.00 Ry     beta= 0.70
     Davidson diagonalization with overlap
     c_bands:  1 eigenvalues not converged
     ethr =  9.17E-07,  avg # of iterations = 10.2

     negative rho (up, down):  1.535E-03 0.000E+00

     total cpu time spent up to now is      300.9 secs

     total energy              =    -471.87397623 Ry
     estimated scf accuracy    <       0.02183039 Ry

     iteration #  3     ecut=    40.00 Ry     beta= 0.70
     Davidson diagonalization with overlap
     c_bands:  1 eigenvalues not converged
     ethr =  9.17E-07,  avg # of iterations = 11.9

     negative rho (up, down):  1.494E-03 0.000E+00

     total cpu time spent up to now is      302.2 secs

     total energy              =    -471.87512308 Ry
     estimated scf accuracy    <       0.00066532 Ry

     iteration #  4     ecut=    40.00 Ry     beta= 0.70
     Davidson diagonalization with overlap
     ethr =  9.17E-07,  avg # of iterations =  1.9

     negative rho (up, down):  1.513E-03 0.000E+00

     total cpu time spent up to now is      303.1 secs

     total energy              =    -471.87513286 Ry
     estimated scf accuracy    <       0.00019556 Ry

     iteration #  5     ecut=    40.00 Ry     beta= 0.70
     Davidson diagonalization with overlap
     ethr =  4.66E-07,  avg # of iterations =  2.3

     negative rho (up, down):  1.486E-03 0.000E+00

     total cpu time spent up to now is      303.9 secs

     total energy              =    -471.87516327 Ry
     estimated scf accuracy    <       0.00005599 Ry

     iteration #  6     ecut=    40.00 Ry     beta= 0.70
     Davidson diagonalization with overlap
     ethr =  1.33E-07,  avg # of iterations =  2.0

     negative rho (up, down):  1.481E-03 0.000E+00

     total cpu time spent up to now is      304.7 secs

     total energy              =    -471.87517102 Ry
     estimated scf accuracy    <       0.00000161 Ry

     iteration #  7     ecut=    40.00 Ry     beta= 0.70
     Davidson diagonalization with overlap
     ethr =  3.84E-09,  avg # of iterations =  7.4

     negative rho (up, down):  1.479E-03 0.000E+00

     total cpu time spent up to now is      305.9 secs

     total energy              =    -471.87517251 Ry
     estimated scf accuracy    <       0.00000175 Ry

     iteration #  8     ecut=    40.00 Ry     beta= 0.70
     Davidson diagonalization with overlap
     ethr =  3.84E-09,  avg # of iterations =  2.1

     negative rho (up, down):  1.479E-03 0.000E+00

     total cpu time spent up to now is      306.8 secs

     total energy              =    -471.87517261 Ry
     estimated scf accuracy    <       0.00000017 Ry

     iteration #  9     ecut=    40.00 Ry     beta= 0.70
     Davidson diagonalization with overlap
     ethr =  4.12E-10,  avg # of iterations =  8.0

     negative rho (up, down):  1.479E-03 0.000E+00

     total cpu time spent up to now is      307.8 secs

     total energy              =    -471.87517266 Ry
     estimated scf accuracy    <       0.00000002 Ry

     iteration # 10     ecut=    40.00 Ry     beta= 0.70
     Davidson diagonalization with overlap
     ethr =  5.68E-11,  avg # of iterations =  4.6

     negative rho (up, down):  1.479E-03 0.000E+00

     total cpu time spent up to now is      308.8 secs

     total energy              =    -471.87517267 Ry
     estimated scf accuracy    <       0.00000001 Ry

     iteration # 11     ecut=    40.00 Ry     beta= 0.70
     Davidson diagonalization with overlap
     ethr =  2.41E-11,  avg # of iterations =  3.6

     negative rho (up, down):  1.479E-03 0.000E+00

     total cpu time spent up to now is      309.8 secs

     total energy              =    -471.87517267 Ry
     estimated scf accuracy    <          7.5E-10 Ry

     iteration # 12     ecut=    40.00 Ry     beta= 0.70
     Davidson diagonalization with overlap
     ethr =  1.78E-12,  avg # of iterations =  6.5

     negative rho (up, down):  1.479E-03 0.000E+00

     total cpu time spent up to now is      311.0 secs

     total energy              =    -471.87517267 Ry
     estimated scf accuracy    <          5.3E-10 Ry

     iteration # 13     ecut=    40.00 Ry     beta= 0.70
     Davidson diagonalization with overlap
     ethr =  1.27E-12,  avg # of iterations =  2.5

     negative rho (up, down):  1.479E-03 0.000E+00

     total cpu time spent up to now is      311.9 secs

     End of self-consistent calculation

          k = 0.0000 0.0000 0.0000 (  5509 PWs)   bands (ev):

   -55.4635 -55.3128 -31.9436 -31.5848 -31.5714 -31.5090 -31.3889 -31.3721
   -19.7525 -18.9527  -9.8918  -7.4565  -6.1217  -3.0579  -2.9988  -2.5439
    -2.1303  -1.5551  -0.3509  -0.3311   1.9266   2.2501   2.2539   2.3585
     3.3010

          k = 0.0000 0.2887 0.0000 (  5504 PWs)   bands (ev):

   -55.4340 -55.2903 -31.8821 -31.7906 -31.5985 -31.5771 -31.5195 -31.4156
   -19.5661 -18.7445  -9.1738  -7.3283  -6.2177  -3.9021  -3.1088  -2.9807
    -2.5123  -1.6891  -1.4187  -0.6183   1.1465   2.7142   3.0060   3.2691
     3.6499

          k = 0.0000-0.5773 0.0000 (  5552 PWs)   bands (ev):

   -55.4041 -55.2680 -32.0101 -31.8641 -31.6686 -31.6206 -31.5643 -31.4546
   -19.3831 -18.5329  -8.4034  -7.1931  -6.2700  -4.9102  -3.9297  -3.1681
    -2.6419  -2.3246  -1.1852  -0.7322   0.3808   3.8393   4.0535   4.2369
     4.4728

          k = 0.2500 0.1443 0.0000 (  5504 PWs)   bands (ev):

   -55.4343 -55.2910 -31.8842 -31.7447 -31.6321 -31.5751 -31.5117 -31.4258
   -19.5608 -18.7153  -9.1860  -7.4031  -6.3860  -3.9092  -3.1109  -3.0763
    -2.4059  -1.8396  -1.2468  -0.4127   1.2942   2.5721   3.0504   3.1007
     3.7016

          k = 0.2500 0.4330 0.0000 (  5528 PWs)   bands (ev):

   -55.4044 -55.2686 -31.9012 -31.8145 -31.7543 -31.6256 -31.5818 -31.5020
   -19.3754 -18.4978  -8.4054  -7.2960  -6.4937  -4.4638  -3.5846  -3.4455
    -2.9267  -2.1418  -1.6398  -1.1915   2.1081   2.5825   3.5908   4.0532
     4.2975

          k = 0.2500-0.4330 0.0000 (  5528 PWs)   bands (ev):

   -55.4039 -55.2682 -31.9500 -31.8220 -31.7373 -31.6102 -31.5577 -31.5095
   -19.3807 -18.5287  -8.3718  -7.2486  -6.2861  -4.4679  -3.6677  -3.5170
    -2.7967  -2.2269  -1.6294  -1.2603   1.9840   2.3466   3.5287   4.0845
     4.1847

          k = 0.2500-0.1443 0.0000 (  5504 PWs)   bands (ev):

   -55.4338 -55.2905 -31.8832 -31.7938 -31.6021 -31.5724 -31.5191 -31.4113
   -19.5646 -18.7388  -9.1792  -7.3317  -6.2736  -3.9087  -3.1156  -2.9747
    -2.4554  -1.7157  -1.4218  -0.6387   1.1425   2.7376   3.0139   3.2632
     3.6766

          k =-0.5000-0.2887 0.0000 (  5552 PWs)   bands (ev):

   -55.4047 -55.2693 -31.9648 -31.8319 -31.6818 -31.6734 -31.5497 -31.4631
   -19.3706 -18.4638  -8.4427  -7.3393  -6.8172  -4.8661  -3.5243  -3.2454
    -2.6580  -2.4929  -0.9766  -0.3823   0.5200   3.6266   4.1299   4.1861
     4.5029

          k =-0.5000-0.0000 0.0000 (  5528 PWs)   bands (ev):

   -55.4042 -55.2688 -31.9091 -31.8144 -31.7499 -31.6227 -31.5769 -31.5052
   -19.3738 -18.4915  -8.4020  -7.3163  -6.5663  -4.4403  -3.5636  -3.4183
    -2.9108  -2.1861  -1.6320  -1.1933   2.0906   2.5737   3.6002   4.0311
     4.3294

          k =-0.5000-0.8660 0.0000 (  5552 PWs)   bands (ev):

   -55.4038 -55.2684 -32.0151 -31.8700 -31.6552 -31.6152 -31.5739 -31.4500
   -19.3800 -18.5205  -8.4092  -7.2315  -6.4304  -4.8249  -3.8320  -3.1529
    -2.7083  -2.3178  -1.2144  -0.7671   0.3917   3.8724   4.0823   4.2410
     4.4958

     the Fermi energy is     2.2180 ev

!    total energy              =    -471.87517267 Ry
     total all-electron energy =     -3795.178862 Ry
     estimated scf accuracy    <          2.2E-10 Ry
     smearing contrib. (-TS)   =      -0.00228717 Ry
     internal energy E=F+TS    =    -471.87288550 Ry

     The total energy is F=E-TS. E is the sum of the following terms:
     one-electron contribution =   -3222.99005541 Ry
     hartree contribution      =    1617.75887149 Ry
     xc contribution           =     -58.23908755 Ry
     ewald contribution        =    1347.58313506 Ry
     one-center paw contrib.   =    -155.98574909 Ry

     convergence has been achieved in  13 iterations

     negative rho (up, down):  1.479E-03 0.000E+00

     Forces acting on atoms (cartesian axes, Ry/au):

     atom    1 type  1   force =     0.00177718    0.00680159   -0.00056398
     atom    2 type  1   force =    -0.00066074   -0.00340854   -0.00153087
     atom    3 type  2   force =    -0.00081306    0.00094464    0.00748469
     atom    4 type  3   force =    -0.00830718   -0.00430131    0.00540781
     atom    5 type  3   force =    -0.00396018   -0.00097630   -0.00264641
     atom    6 type  4   force =     0.00819740    0.00230547    0.00117194
     atom    7 type  4   force =     0.00376658   -0.00136555   -0.00932318

     Total force =     0.020951     Total SCF correction =     0.000086
     Energy error            =      4.6E-04 Ry
     Gradient error          =      9.3E-03 Ry/Bohr

     number of scf cycles    =  15
     number of bfgs steps    =  14

     energy             old  =    -471.8747114034 Ry
     energy             new  =    -471.8751726714 Ry

     CASE: energy            _new < energy            _old

     new trust radius        =       0.0484091416 bohr
     new conv_thr            =       0.0000000005 Ry


ATOMIC_POSITIONS (angstrom)
Ti              -0.3423815014        1.7169045513        3.1026383234
Ti               1.1446146014        0.8232707679        5.4159748757
C                2.7013525222       -0.0398480960        4.2618327788
O                0.2650110803        2.0903985558        6.8921625023
O                1.1416740671        0.8311145282        1.8235573305
H                0.8721044524        0.7216295328        0.8906376588
H               -0.3630252220        1.8025901600        7.5866765305



     Writing config-only to output data dir ./tmp/ti2coh2.save/ :
     XML data file
     NEW-OLD atomic charge density approx. for the potential

     Check: negative core charge=   -0.000005

     negative rho (up, down):  1.473E-03 0.000E+00

     total cpu time spent up to now is      312.5 secs

     Self-consistent Calculation

     iteration #  1     ecut=    40.00 Ry     beta= 0.70
     Davidson diagonalization with overlap
     ethr =  1.00E-06,  avg # of iterations =  8.4

     negative rho (up, down):  1.477E-03 0.000E+00

     total cpu time spent up to now is      314.5 secs

     total energy              =    -471.87554647 Ry
     estimated scf accuracy    <       0.00047214 Ry

     iteration #  2     ecut=    40.00 Ry     beta= 0.70
     Davidson diagonalization with overlap
     ethr =  1.12E-06,  avg # of iterations =  5.9

     negative rho (up, down):  1.574E-03 0.000E+00

     total cpu time spent up to now is      315.7 secs

     total energy              =    -471.87515140 Ry
     estimated scf accuracy    <       0.00307445 Ry

     iteration #  3     ecut=    40.00 Ry     beta= 0.70
     Davidson diagonalization with overlap
     ethr =  1.12E-06,  avg # of iterations =  9.5

     negative rho (up, down):  1.544E-03 0.000E+00

     total cpu time spent up to now is      316.9 secs

     total energy              =    -471.87523317 Ry
     estimated scf accuracy    <       0.00945266 Ry

     iteration #  4     ecut=    40.00 Ry     beta= 0.70
     Davidson diagonalization with overlap
     ethr =  1.12E-06,  avg # of iterations =  6.5

     negative rho (up, down):  1.556E-03 0.000E+00

     total cpu time spent up to now is      317.9 secs

     total energy              =    -471.87553995 Ry
     estimated scf accuracy    <       0.00182225 Ry

     iteration #  5     ecut=    40.00 Ry     beta= 0.70
     Davidson diagonalization with overlap
     ethr =  1.12E-06,  avg # of iterations =  2.8

     negative rho (up, down):  1.496E-03 0.000E+00

     total cpu time spent up to now is      318.8 secs

     total energy              =    -471.87570806 Ry
     estimated scf accuracy    <       0.00001409 Ry

     iteration #  6     ecut=    40.00 Ry     beta= 0.70
     Davidson diagonalization with overlap
     ethr =  3.36E-08,  avg # of iterations =  9.5

     negative rho (up, down):  1.482E-03 0.000E+00

     total cpu time spent up to now is      320.2 secs

     total energy              =    -471.87572233 Ry
     estimated scf accuracy    <       0.00002429 Ry

     iteration #  7     ecut=    40.00 Ry     beta= 0.70
     Davidson diagonalization with overlap
     ethr =  3.36E-08,  avg # of iterations =  2.1

     negative rho (up, down):  1.479E-03 0.000E+00

     total cpu time spent up to now is      321.1 secs

     total energy              =    -471.87572364 Ry
     estimated scf accuracy    <       0.00000823 Ry

     iteration #  8     ecut=    40.00 Ry     beta= 0.70
     Davidson diagonalization with overlap
     ethr =  1.96E-08,  avg # of iterations =  2.9

     negative rho (up, down):  1.479E-03 0.000E+00

     total cpu time spent up to now is      322.0 secs

     total energy              =    -471.87572421 Ry
     estimated scf accuracy    <       0.00000085 Ry

     iteration #  9     ecut=    40.00 Ry     beta= 0.70
     Davidson diagonalization with overlap
     ethr =  2.03E-09,  avg # of iterations =  5.8

     negative rho (up, down):  1.479E-03 0.000E+00

     total cpu time spent up to now is      323.1 secs

     total energy              =    -471.87572448 Ry
     estimated scf accuracy    <       0.00000053 Ry

     iteration # 10     ecut=    40.00 Ry     beta= 0.70
     Davidson diagonalization with overlap
     ethr =  1.27E-09,  avg # of iterations =  2.8

     negative rho (up, down):  1.479E-03 0.000E+00

     total cpu time spent up to now is      326.1 secs

     total energy              =    -471.87572456 Ry
     estimated scf accuracy    <       0.00000019 Ry

     iteration # 11     ecut=    40.00 Ry     beta= 0.70
     Davidson diagonalization with overlap
     ethr =  4.60E-10,  avg # of iterations =  2.0

     negative rho (up, down):  1.479E-03 0.000E+00

     total cpu time spent up to now is      327.0 secs

     total energy              =    -471.87572457 Ry
     estimated scf accuracy    <       0.00000005 Ry

     iteration # 12     ecut=    40.00 Ry     beta= 0.70
     Davidson diagonalization with overlap
     ethr =  1.28E-10,  avg # of iterations =  4.1

     negative rho (up, down):  1.479E-03 0.000E+00

     total cpu time spent up to now is      327.9 secs

     total energy              =    -471.87572457 Ry
     estimated scf accuracy    <          6.3E-09 Ry

     iteration # 13     ecut=    40.00 Ry     beta= 0.70
     Davidson diagonalization with overlap
     ethr =  1.50E-11,  avg # of iterations =  6.8

     negative rho (up, down):  1.479E-03 0.000E+00

     total cpu time spent up to now is      329.0 secs

     total energy              =    -471.87572458 Ry
     estimated scf accuracy    <          3.5E-09 Ry

     iteration # 14     ecut=    40.00 Ry     beta= 0.70
     Davidson diagonalization with overlap
     ethr =  8.44E-12,  avg # of iterations =  2.0

     negative rho (up, down):  1.479E-03 0.000E+00

     total cpu time spent up to now is      329.9 secs

     total energy              =    -471.87572458 Ry
     estimated scf accuracy    <          5.2E-10 Ry

     iteration # 15     ecut=    40.00 Ry     beta= 0.70
     Davidson diagonalization with overlap
     ethr =  1.24E-12,  avg # of iterations =  6.2

     negative rho (up, down):  1.479E-03 0.000E+00

     total cpu time spent up to now is      330.9 secs

     End of self-consistent calculation

          k = 0.0000 0.0000 0.0000 (  5509 PWs)   bands (ev):

   -55.4746 -55.3268 -31.9570 -31.5959 -31.5852 -31.5186 -31.4029 -31.3845
   -19.7515 -18.9470  -9.9074  -7.4597  -6.1055  -3.0518  -2.9950  -2.5697
    -2.1235  -1.5622  -0.3791  -0.3456   1.9154   2.2295   2.2436   2.3449
     3.3203

          k = 0.0000 0.2887 0.0000 (  5504 PWs)   bands (ev):

   -55.4449 -55.3046 -31.8966 -31.8040 -31.6124 -31.5871 -31.5315 -31.4253
   -19.5649 -18.7380  -9.1915  -7.3327  -6.2006  -3.9005  -3.1103  -2.9826
    -2.5206  -1.7194  -1.4316  -0.6482   1.1304   2.7086   2.9948   3.2580
     3.6498

          k = 0.0000-0.5773 0.0000 (  5552 PWs)   bands (ev):

   -55.4147 -55.2826 -32.0248 -31.8806 -31.6748 -31.6284 -31.5824 -31.4639
   -19.3815 -18.5254  -8.4234  -7.2018  -6.2609  -4.8964  -3.9260  -3.1779
    -2.6724  -2.3350  -1.2112  -0.7630   0.3672   3.8429   4.0536   4.2254
     4.4690

          k = 0.2500 0.1443 0.0000 (  5504 PWs)   bands (ev):

   -55.4452 -55.3051 -31.8976 -31.7560 -31.6452 -31.5876 -31.5225 -31.4401
   -19.5603 -18.7081  -9.2012  -7.4070  -6.3784  -3.9071  -3.1179  -3.0637
    -2.3979  -1.8473  -1.2758  -0.4310   1.2737   2.5585   3.0378   3.0869
     3.6833

          k = 0.2500 0.4330 0.0000 (  5528 PWs)   bands (ev):

   -55.4151 -55.2830 -31.9165 -31.8276 -31.7650 -31.6378 -31.5928 -31.5139
   -19.3746 -18.4897  -8.4220  -7.3008  -6.4912  -4.4616  -3.5775  -3.4449
    -2.9314  -2.1638  -1.6542  -1.2099   2.0857   2.5588   3.5932   4.0339
     4.2887

          k = 0.2500-0.4330 0.0000 (  5528 PWs)   bands (ev):

   -55.4146 -55.2826 -31.9631 -31.8356 -31.7488 -31.6194 -31.5720 -31.5216
   -19.3801 -18.5211  -8.3888  -7.2514  -6.2755  -4.4689  -3.6698  -3.5163
    -2.8043  -2.2449  -1.6491  -1.2722   1.9626   2.3296   3.5232   4.0858
     4.1744

          k = 0.2500-0.1443 0.0000 (  5504 PWs)   bands (ev):

   -55.4448 -55.3047 -31.8966 -31.8043 -31.6134 -31.5863 -31.5306 -31.4257
   -19.5643 -18.7322  -9.1932  -7.3374  -6.2598  -3.9052  -3.1125  -2.9726
    -2.4625  -1.7241  -1.4361  -0.6599   1.1263   2.7177   3.0032   3.2523
     3.6603

          k =-0.5000-0.2887 0.0000 (  5552 PWs)   bands (ev):

   -55.4155 -55.2836 -31.9770 -31.8435 -31.6947 -31.6885 -31.5593 -31.4774
   -19.3707 -18.4549  -8.4597  -7.3361  -6.8241  -4.8742  -3.5158  -3.2334
    -2.6490  -2.4939  -0.9947  -0.3987   0.4945   3.6060   4.1152   4.1758
     4.4856

          k =-0.5000-0.0000 0.0000 (  5528 PWs)   bands (ev):

   -55.4150 -55.2831 -31.9196 -31.8252 -31.7653 -31.6350 -31.5931 -31.5157
   -19.3742 -18.4833  -8.4209  -7.3117  -6.5655  -4.4460  -3.5647  -3.4071
    -2.9034  -2.1832  -1.6466  -1.2162   2.0783   2.5535   3.5829   4.0121
     4.3082

          k =-0.5000-0.8660 0.0000 (  5552 PWs)   bands (ev):

   -55.4145 -55.2827 -32.0264 -31.8811 -31.6700 -31.6280 -31.5853 -31.4643
   -19.3806 -18.5128  -8.4250  -7.2243  -6.4247  -4.8493  -3.8245  -3.1462
    -2.7011  -2.3174  -1.2282  -0.7789   0.3733   3.8507   4.0677   4.2355
     4.4749

     the Fermi energy is     2.2008 ev

!    total energy              =    -471.87572458 Ry
     total all-electron energy =     -3795.179414 Ry
     estimated scf accuracy    <          4.2E-10 Ry
     smearing contrib. (-TS)   =      -0.00226725 Ry
     internal energy E=F+TS    =    -471.87345733 Ry

     The total energy is F=E-TS. E is the sum of the following terms:
     one-electron contribution =   -3223.48555720 Ry
     hartree contribution      =    1617.99372311 Ry
     xc contribution           =     -58.23834673 Ry
     ewald contribution        =    1347.84256098 Ry
     one-center paw contrib.   =    -155.98583749 Ry

     convergence has been achieved in  15 iterations

     negative rho (up, down):  1.479E-03 0.000E+00

     Forces acting on atoms (cartesian axes, Ry/au):

     atom    1 type  1   force =     0.00058760    0.00513164   -0.00417765
     atom    2 type  1   force =    -0.00086006    0.00035475   -0.00001410
     atom    3 type  2   force =     0.00097201    0.00085447    0.00987767
     atom    4 type  3   force =    -0.00981957   -0.00447964    0.00493362
     atom    5 type  3   force =    -0.00342292   -0.00376134   -0.00145403
     atom    6 type  4   force =     0.00747675    0.00250331    0.00117794
     atom    7 type  4   force =     0.00506618   -0.00060319   -0.01034346

     Total force =     0.022575     Total SCF correction =     0.000085
     Energy error            =      5.5E-04 Ry
     Gradient error          =      1.0E-02 Ry/Bohr

     number of scf cycles    =  16
     number of bfgs steps    =  15

     energy             old  =    -471.8751726714 Ry
     energy             new  =    -471.8757245771 Ry

     CASE: energy            _new < energy            _old

     new trust radius        =       0.0532500557 bohr
     new conv_thr            =       0.0000000006 Ry


ATOMIC_POSITIONS (angstrom)
Ti              -0.3422397558        1.7301348086        3.1057194844
Ti               1.1435993615        0.8113160344        5.4154017475
C                2.6984393445       -0.0388442659        4.2646404154
O                0.2551938823        2.0752511618        6.8908191837
O                1.1396097113        0.8550368467        1.8278320654
H                0.8989025039        0.7302476716        0.8893601018
H               -0.3741550477        1.7829177427        7.5797070018



     Writing config-only to output data dir ./tmp/ti2coh2.save/ :
     XML data file
     NEW-OLD atomic charge density approx. for the potential

     Check: negative core charge=   -0.000005

     negative rho (up, down):  1.491E-03 0.000E+00

     total cpu time spent up to now is      331.6 secs

     Self-consistent Calculation

     iteration #  1     ecut=    40.00 Ry     beta= 0.70
     Davidson diagonalization with overlap
     ethr =  1.00E-06,  avg # of iterations =  8.4

     negative rho (up, down):  1.494E-03 0.000E+00

     total cpu time spent up to now is      333.7 secs

     total energy              =    -471.87608187 Ry
     estimated scf accuracy    <       0.00053550 Ry

     iteration #  2     ecut=    40.00 Ry     beta= 0.70
     Davidson diagonalization with overlap
     ethr =  1.27E-06,  avg # of iterations =  5.7

     negative rho (up, down):  1.629E-03 0.000E+00

     total cpu time spent up to now is      334.8 secs

     total energy              =    -471.87545622 Ry
     estimated scf accuracy    <       0.00744979 Ry

     iteration #  3     ecut=    40.00 Ry     beta= 0.70
     Davidson diagonalization with overlap
     ethr =  1.27E-06,  avg # of iterations =  9.9

     negative rho (up, down):  1.539E-03 0.000E+00

     total cpu time spent up to now is      335.9 secs

     total energy              =    -471.87601119 Ry
     estimated scf accuracy    <       0.00492887 Ry

     iteration #  4     ecut=    40.00 Ry     beta= 0.70
     Davidson diagonalization with overlap
     ethr =  1.27E-06,  avg # of iterations =  9.3

     negative rho (up, down):  1.580E-03 0.000E+00

     total cpu time spent up to now is      337.0 secs

     total energy              =    -471.87613332 Ry
     estimated scf accuracy    <       0.00160884 Ry

     iteration #  5     ecut=    40.00 Ry     beta= 0.70
     Davidson diagonalization with overlap
     ethr =  1.27E-06,  avg # of iterations =  3.0

     negative rho (up, down):  1.508E-03 0.000E+00

     total cpu time spent up to now is      337.9 secs

     total energy              =    -471.87627847 Ry
     estimated scf accuracy    <       0.00001693 Ry

     iteration #  6     ecut=    40.00 Ry     beta= 0.70
     Davidson diagonalization with overlap
     ethr =  4.03E-08,  avg # of iterations =  7.1

     negative rho (up, down):  1.496E-03 0.000E+00

     total cpu time spent up to now is      339.0 secs

     total energy              =    -471.87629232 Ry
     estimated scf accuracy    <       0.00002605 Ry

     iteration #  7     ecut=    40.00 Ry     beta= 0.70
     Davidson diagonalization with overlap
     ethr =  4.03E-08,  avg # of iterations =  2.9

     negative rho (up, down):  1.492E-03 0.000E+00

     total cpu time spent up to now is      339.9 secs

     total energy              =    -471.87629426 Ry
     estimated scf accuracy    <       0.00001002 Ry

     iteration #  8     ecut=    40.00 Ry     beta= 0.70
     Davidson diagonalization with overlap
     ethr =  2.39E-08,  avg # of iterations =  2.0

     negative rho (up, down):  1.492E-03 0.000E+00

     total cpu time spent up to now is      340.8 secs

     total energy              =    -471.87629480 Ry
     estimated scf accuracy    <       0.00000131 Ry

     iteration #  9     ecut=    40.00 Ry     beta= 0.70
     Davidson diagonalization with overlap
     ethr =  3.12E-09,  avg # of iterations =  6.3

     negative rho (up, down):  1.492E-03 0.000E+00

     total cpu time spent up to now is      341.9 secs

     total energy              =    -471.87629521 Ry
     estimated scf accuracy    <       0.00000098 Ry

     iteration # 10     ecut=    40.00 Ry     beta= 0.70
     Davidson diagonalization with overlap
     ethr =  2.34E-09,  avg # of iterations =  2.0

     negative rho (up, down):  1.492E-03 0.000E+00

     total cpu time spent up to now is      342.7 secs

     total energy              =    -471.87629523 Ry
     estimated scf accuracy    <       0.00000036 Ry

     iteration # 11     ecut=    40.00 Ry     beta= 0.70
     Davidson diagonalization with overlap
     ethr =  8.54E-10,  avg # of iterations =  4.0

     negative rho (up, down):  1.492E-03 0.000E+00

     total cpu time spent up to now is      343.6 secs

     total energy              =    -471.87629526 Ry
     estimated scf accuracy    <       0.00000003 Ry

     iteration # 12     ecut=    40.00 Ry     beta= 0.70
     Davidson diagonalization with overlap
     ethr =  7.78E-11,  avg # of iterations =  6.3

     negative rho (up, down):  1.492E-03 0.000E+00

     total cpu time spent up to now is      344.7 secs

     total energy              =    -471.87629528 Ry
     estimated scf accuracy    <       0.00000002 Ry

     iteration # 13     ecut=    40.00 Ry     beta= 0.70
     Davidson diagonalization with overlap
     ethr =  4.14E-11,  avg # of iterations =  2.1

     negative rho (up, down):  1.492E-03 0.000E+00

     total cpu time spent up to now is      345.6 secs

     total energy              =    -471.87629528 Ry
     estimated scf accuracy    <          2.9E-09 Ry

     iteration # 14     ecut=    40.00 Ry     beta= 0.70
     Davidson diagonalization with overlap
     ethr =  6.84E-12,  avg # of iterations =  6.4

     negative rho (up, down):  1.492E-03 0.000E+00

     total cpu time spent up to now is      346.6 secs

     total energy              =    -471.87629528 Ry
     estimated scf accuracy    <          7.2E-10 Ry

     iteration # 15     ecut=    40.00 Ry     beta= 0.70
     Davidson diagonalization with overlap
     ethr =  1.71E-12,  avg # of iterations =  5.5

     negative rho (up, down):  1.492E-03 0.000E+00

     total cpu time spent up to now is      347.5 secs

     End of self-consistent calculation

          k = 0.0000 0.0000 0.0000 (  5509 PWs)   bands (ev):

   -55.4799 -55.3322 -31.9644 -31.6031 -31.5916 -31.5213 -31.4108 -31.3880
   -19.7571 -18.9727  -9.9189  -7.4752  -6.1145  -3.0480  -3.0035  -2.5964
    -2.1412  -1.5750  -0.4061  -0.3563   1.9078   2.2120   2.2386   2.3467
     3.3266

          k = 0.0000 0.2887 0.0000 (  5504 PWs)   bands (ev):

   -55.4500 -55.3102 -31.9048 -31.8126 -31.6208 -31.5902 -31.5358 -31.4272
   -19.5706 -18.7637  -9.2041  -7.3451  -6.2144  -3.9085  -3.1210  -2.9970
    -2.5387  -1.7493  -1.4414  -0.6764   1.1209   2.7093   2.9903   3.2541
     3.6576

          k = 0.0000-0.5773 0.0000 (  5552 PWs)   bands (ev):

   -55.4196 -55.2884 -32.0343 -31.8921 -31.6741 -31.6291 -31.5939 -31.4656
   -19.3872 -18.5512  -8.4367  -7.2162  -6.2829  -4.8903  -3.9374  -3.1920
    -2.7064  -2.3567  -1.2345  -0.7919   0.3617   3.8561   4.0618   4.2209
     4.4705

          k = 0.2500 0.1443 0.0000 (  5504 PWs)   bands (ev):

   -55.4505 -55.3105 -31.9047 -31.7610 -31.6530 -31.5928 -31.5258 -31.4475
   -19.5668 -18.7336  -9.2132  -7.4173  -6.3952  -3.9120  -3.1374  -3.0669
    -2.4132  -1.8477  -1.2976  -0.4413   1.2599   2.5542   3.0302   3.0804
     3.6693

          k = 0.2500 0.4330 0.0000 (  5528 PWs)   bands (ev):

   -55.4202 -55.2887 -31.9261 -31.8354 -31.7691 -31.6441 -31.5959 -31.5186
   -19.3812 -18.5153  -8.4332  -7.3096  -6.5150  -4.4687  -3.5810  -3.4603
    -2.9494  -2.1858  -1.6637  -1.2220   2.0729   2.5437   3.6071   4.0214
     4.2883

          k = 0.2500-0.4330 0.0000 (  5528 PWs)   bands (ev):

   -55.4197 -55.2883 -31.9712 -31.8442 -31.7536 -31.6224 -31.5785 -31.5262
   -19.3867 -18.5470  -8.3991  -7.2618  -6.2938  -4.4764  -3.6865  -3.5226
    -2.8276  -2.2602  -1.6638  -1.2798   1.9516   2.3173   3.5296   4.0959
     4.1694

          k = 0.2500-0.1443 0.0000 (  5504 PWs)   bands (ev):

   -55.4500 -55.3101 -31.9036 -31.8098 -31.6183 -31.5940 -31.5348 -31.4325
   -19.5709 -18.7581  -9.2023  -7.3517  -6.2738  -3.9109  -3.1206  -2.9811
    -2.4827  -1.7308  -1.4466  -0.6745   1.1177   2.7015   3.0001   3.2487
     3.6500

          k =-0.5000-0.2887 0.0000 (  5552 PWs)   bands (ev):

   -55.4207 -55.2890 -31.9824 -31.8489 -31.7023 -31.6975 -31.5613 -31.4848
   -19.3783 -18.4803  -8.4743  -7.3356  -6.8489  -4.8890  -3.5260  -3.2365
    -2.6615  -2.4921  -1.0030  -0.4054   0.4740   3.5880   4.1163   4.1727
     4.4746

          k =-0.5000-0.0000 0.0000 (  5528 PWs)   bands (ev):

   -55.4202 -55.2885 -31.9233 -31.8305 -31.7746 -31.6412 -31.6029 -31.5182
   -19.3819 -18.5090  -8.4353  -7.3119  -6.5871  -4.4611  -3.5747  -3.4143
    -2.9111  -2.1790  -1.6579  -1.2294   2.0782   2.5431   3.5768   4.0019
     4.2932

          k =-0.5000-0.8660 0.0000 (  5552 PWs)   bands (ev):

   -55.4197 -55.2882 -32.0318 -31.8864 -31.6797 -31.6348 -31.5882 -31.4711
   -19.3882 -18.5390  -8.4349  -7.2251  -6.4419  -4.8801  -3.8361  -3.1484
    -2.6947  -2.3292  -1.2353  -0.7809   0.3613   3.8410   4.0597   4.2317
     4.4569

     the Fermi energy is     2.1924 ev

!    total energy              =    -471.87629529 Ry
     total all-electron energy =     -3795.179984 Ry
     estimated scf accuracy    <          1.0E-10 Ry
     smearing contrib. (-TS)   =      -0.00227718 Ry
     internal energy E=F+TS    =    -471.87401810 Ry

     The total energy is F=E-TS. E is the sum of the following terms:
     one-electron contribution =   -3225.92402021 Ry
     hartree contribution      =    1619.20067906 Ry
     xc contribution           =     -58.24347670 Ry
     ewald contribution        =    1349.07876819 Ry
     one-center paw contrib.   =    -155.98596845 Ry

     convergence has been achieved in  15 iterations

     negative rho (up, down):  1.492E-03 0.000E+00

     Forces acting on atoms (cartesian axes, Ry/au):

     atom    1 type  1   force =    -0.00118170    0.00212358   -0.00550125
     atom    2 type  1   force =    -0.00042507    0.00459669    0.00167532
     atom    3 type  2   force =     0.00261033    0.00108789    0.00904509
     atom    4 type  3   force =    -0.00836132   -0.00345112    0.00255883
     atom    5 type  3   force =    -0.00225366   -0.00570281   -0.00090626
     atom    6 type  4   force =     0.00653097    0.00259205    0.00083429
     atom    7 type  4   force =     0.00308045   -0.00124627   -0.00770603

     Total force =     0.019934     Total SCF correction =     0.000047
     Energy error            =      5.7E-04 Ry
     Gradient error          =      9.0E-03 Ry/Bohr

     number of scf cycles    =  17
     number of bfgs steps    =  16

     energy             old  =    -471.8757245771 Ry
     energy             new  =    -471.8762952850 Ry

     CASE: energy            _new < energy            _old

     new trust radius        =       0.0730957948 bohr
     new conv_thr            =       0.0000000006 Ry


ATOMIC_POSITIONS (angstrom)
Ti              -0.3429916675        1.7480326567        3.1079314197
Ti               1.1422007678        0.7999421100        5.4158165879
C                2.6969131573       -0.0358578179        4.2740193466
O                0.2387254598        2.0557845987        6.8852516732
O                1.1363426322        0.8780414824        1.8339962128
H                0.9354343911        0.7429116371        0.8882482384
H               -0.3872747408        1.7572053330        7.5682165214



     Writing config-only to output data dir ./tmp/ti2coh2.save/ :
     XML data file
     NEW-OLD atomic charge density approx. for the potential

     Check: negative core charge=   -0.000005

     negative rho (up, down):  1.522E-03 0.000E+00

     total cpu time spent up to now is      348.1 secs

     Self-consistent Calculation

     iteration #  1     ecut=    40.00 Ry     beta= 0.70
     Davidson diagonalization with overlap
     ethr =  1.00E-06,  avg # of iterations =  9.1

     negative rho (up, down):  1.522E-03 0.000E+00

     total cpu time spent up to now is      350.3 secs

     total energy              =    -471.87645207 Ry
     estimated scf accuracy    <       0.00097206 Ry

     iteration #  2     ecut=    40.00 Ry     beta= 0.70
     Davidson diagonalization with overlap
     ethr =  2.31E-06,  avg # of iterations = 12.7

     negative rho (up, down):  1.738E-03 0.000E+00

     total cpu time spent up to now is      351.8 secs

     total energy              =    -471.87401940 Ry
     estimated scf accuracy    <       0.05128069 Ry

     iteration #  3     ecut=    40.00 Ry     beta= 0.70
     Davidson diagonalization with overlap
     c_bands:  1 eigenvalues not converged
     c_bands:  1 eigenvalues not converged
     ethr =  2.31E-06,  avg # of iterations = 16.0

     negative rho (up, down):  1.559E-03 0.000E+00

     total cpu time spent up to now is      353.3 secs

     total energy              =    -471.87680434 Ry
     estimated scf accuracy    <       0.00179072 Ry

     iteration #  4     ecut=    40.00 Ry     beta= 0.70
     Davidson diagonalization with overlap
     ethr =  2.31E-06,  avg # of iterations =  1.7

     negative rho (up, down):  1.566E-03 0.000E+00

     total cpu time spent up to now is      354.1 secs

     total energy              =    -471.87685304 Ry
     estimated scf accuracy    <       0.00009589 Ry

     iteration #  5     ecut=    40.00 Ry     beta= 0.70
     Davidson diagonalization with overlap
     ethr =  2.28E-07,  avg # of iterations =  5.8

     negative rho (up, down):  1.529E-03 0.000E+00

     total cpu time spent up to now is      355.1 secs

     total energy              =    -471.87686980 Ry
     estimated scf accuracy    <       0.00042367 Ry

     iteration #  6     ecut=    40.00 Ry     beta= 0.70
     Davidson diagonalization with overlap
     ethr =  2.28E-07,  avg # of iterations =  2.6

     negative rho (up, down):  1.518E-03 0.000E+00

     total cpu time spent up to now is      355.9 secs

     total energy              =    -471.87690245 Ry
     estimated scf accuracy    <       0.00002034 Ry

     iteration #  7     ecut=    40.00 Ry     beta= 0.70
     Davidson diagonalization with overlap
     ethr =  4.84E-08,  avg # of iterations =  3.4

     negative rho (up, down):  1.519E-03 0.000E+00

     total cpu time spent up to now is      356.9 secs

     total energy              =    -471.87690484 Ry
     estimated scf accuracy    <       0.00000078 Ry

     iteration #  8     ecut=    40.00 Ry     beta= 0.70
     Davidson diagonalization with overlap
     ethr =  1.85E-09,  avg # of iterations =  9.1

     negative rho (up, down):  1.520E-03 0.000E+00

     total cpu time spent up to now is      358.1 secs

     total energy              =    -471.87690550 Ry
     estimated scf accuracy    <       0.00000146 Ry

     iteration #  9     ecut=    40.00 Ry     beta= 0.70
     Davidson diagonalization with overlap
     ethr =  1.85E-09,  avg # of iterations =  2.0

     negative rho (up, down):  1.520E-03 0.000E+00

     total cpu time spent up to now is      361.2 secs

     total energy              =    -471.87690553 Ry
     estimated scf accuracy    <       0.00000030 Ry

     iteration # 10     ecut=    40.00 Ry     beta= 0.70
     Davidson diagonalization with overlap
     ethr =  7.07E-10,  avg # of iterations =  3.7

     negative rho (up, down):  1.520E-03 0.000E+00

     total cpu time spent up to now is      362.1 secs

     total energy              =    -471.87690556 Ry
     estimated scf accuracy    <       0.00000002 Ry

     iteration # 11     ecut=    40.00 Ry     beta= 0.70
     Davidson diagonalization with overlap
     ethr =  3.73E-11,  avg # of iterations =  8.7

     negative rho (up, down):  1.520E-03 0.000E+00

     total cpu time spent up to now is      363.3 secs

     total energy              =    -471.87690557 Ry
     estimated scf accuracy    <       0.00000003 Ry

     iteration # 12     ecut=    40.00 Ry     beta= 0.70
     Davidson diagonalization with overlap
     ethr =  3.73E-11,  avg # of iterations =  1.7

     negative rho (up, down):  1.520E-03 0.000E+00

     total cpu time spent up to now is      364.2 secs

     total energy              =    -471.87690557 Ry
     estimated scf accuracy    <          6.7E-09 Ry

     iteration # 13     ecut=    40.00 Ry     beta= 0.70
     Davidson diagonalization with overlap
     ethr =  1.59E-11,  avg # of iterations =  2.6

     negative rho (up, down):  1.519E-03 0.000E+00

     total cpu time spent up to now is      365.0 secs

     End of self-consistent calculation

          k = 0.0000 0.0000 0.0000 (  5509 PWs)   bands (ev):

   -55.4814 -55.3304 -31.9661 -31.6095 -31.5912 -31.5187 -31.4138 -31.3846
   -19.7702 -19.0362  -9.9261  -7.5056  -6.1515  -3.0459  -3.0212  -2.6313
    -2.1907  -1.5969  -0.4303  -0.3593   1.9008   2.2035   2.2334   2.3632
     3.3199

          k = 0.0000 0.2887 0.0000 (  5504 PWs)   bands (ev):

   -55.4514 -55.3084 -31.9073 -31.8182 -31.6255 -31.5880 -31.5340 -31.4230
   -19.5842 -18.8279  -9.2110  -7.3677  -6.2633  -3.9266  -3.1452  -3.0252
    -2.5717  -1.7811  -1.4483  -0.7009   1.1180   2.7163   2.9910   3.2570
     3.6705

          k = 0.0000-0.5773 0.0000 (  5552 PWs)   bands (ev):

   -55.4210 -55.2867 -32.0401 -31.8996 -31.6683 -31.6244 -31.5997 -31.4614
   -19.4014 -18.6161  -8.4416  -7.2371  -6.3432  -4.8936  -3.9676  -3.2095
    -2.7457  -2.3965  -1.2580  -0.8179   0.3651   3.8754   4.0737   4.2261
     4.4766

          k = 0.2500 0.1443 0.0000 (  5504 PWs)   bands (ev):

   -55.4521 -55.3085 -31.9062 -31.7615 -31.6574 -31.5927 -31.5237 -31.4493
   -19.5812 -18.7980  -9.2220  -7.4351  -6.4412  -3.9247  -3.1763  -3.0852
    -2.4591  -1.8413  -1.3127  -0.4411   1.2518   2.5590   3.0268   3.0821
     3.6556

          k = 0.2500 0.4330 0.0000 (  5528 PWs)   bands (ev):

   -55.4217 -55.2867 -31.9312 -31.8393 -31.7678 -31.6464 -31.5924 -31.5178
   -19.3963 -18.5805  -8.4379  -7.3228  -6.5729  -4.4852  -3.5976  -3.4941
    -2.9860  -2.2123  -1.6677  -1.2303   2.0719   2.5349   3.6319   4.0130
     4.2967

          k = 0.2500-0.4330 0.0000 (  5528 PWs)   bands (ev):

   -55.4212 -55.2863 -31.9756 -31.8487 -31.7529 -31.6218 -31.5779 -31.5252
   -19.4016 -18.6125  -8.4014  -7.2811  -6.3461  -4.4906  -3.7239  -3.5364
    -2.8735  -2.2733  -1.6731  -1.2849   1.9542   2.3099   3.5469   4.1085
     4.1702

          k = 0.2500-0.1443 0.0000 (  5504 PWs)   bands (ev):

   -55.4516 -55.3081 -31.9048 -31.8118 -31.6187 -31.5969 -31.5332 -31.4337
   -19.5851 -18.8228  -9.2062  -7.3769  -6.3190  -3.9269  -3.1464  -3.0007
    -2.5221  -1.7365  -1.4535  -0.6779   1.1169   2.6886   3.0027   3.2528
     3.6417

          k =-0.5000-0.2887 0.0000 (  5552 PWs)   bands (ev):

   -55.4224 -55.2868 -31.9822 -31.8492 -31.7071 -31.7012 -31.5576 -31.4868
   -19.3945 -18.5459  -8.4855  -7.3384  -6.8993  -4.9106  -3.5590  -3.2540
    -2.7032  -2.4902  -1.0066  -0.3994   0.4571   3.5690   4.1334   4.1774
     4.4688

          k =-0.5000-0.0000 0.0000 (  5528 PWs)   bands (ev):

   -55.4219 -55.2863 -31.9215 -31.8317 -31.7790 -31.6433 -31.6079 -31.5146
   -19.3978 -18.5749  -8.4443  -7.3178  -6.6382  -4.4861  -3.5939  -3.4450
    -2.9415  -2.1729  -1.6675  -1.2332   2.0932   2.5412   3.5803   4.0001
     4.2821

          k =-0.5000-0.8660 0.0000 (  5552 PWs)   bands (ev):

   -55.4214 -55.2860 -32.0329 -31.8866 -31.6863 -31.6373 -31.5840 -31.4724
   -19.4038 -18.6051  -8.4374  -7.2365  -6.4867  -4.9181  -3.8729  -3.1595
    -2.6922  -2.3574  -1.2389  -0.7663   0.3552   3.8385   4.0581   4.2284
     4.4404

     the Fermi energy is     2.1940 ev

!    total energy              =    -471.87690557 Ry
     total all-electron energy =     -3795.180595 Ry
     estimated scf accuracy    <          3.8E-10 Ry
     smearing contrib. (-TS)   =      -0.00234580 Ry
     internal energy E=F+TS    =    -471.87455977 Ry

     The total energy is F=E-TS. E is the sum of the following terms:
     one-electron contribution =   -3229.63175058 Ry
     hartree contribution      =    1621.03964518 Ry
     xc contribution           =     -58.25335954 Ry
     ewald contribution        =    1350.95698776 Ry
     one-center paw contrib.   =    -155.98608258 Ry

     convergence has been achieved in  13 iterations

     negative rho (up, down):  1.519E-03 0.000E+00

     Forces acting on atoms (cartesian axes, Ry/au):

     atom    1 type  1   force =    -0.00279075   -0.00240983   -0.00407911
     atom    2 type  1   force =     0.00095641    0.00943784    0.00293233
     atom    3 type  2   force =     0.00338546    0.00153773    0.00431024
     atom    4 type  3   force =    -0.00438625   -0.00115026   -0.00127755
     atom    5 type  3   force =    -0.00039270   -0.00675784   -0.00031986
     atom    6 type  4   force =     0.00518129    0.00254207   -0.00008620
     atom    7 type  4   force =    -0.00195347   -0.00319972   -0.00147985

     Total force =     0.016700     Total SCF correction =     0.000090
     Energy error            =      6.1E-04 Ry
     Gradient error          =      9.4E-03 Ry/Bohr

     number of scf cycles    =  18
     number of bfgs steps    =  17

     energy             old  =    -471.8762952850 Ry
     energy             new  =    -471.8769055694 Ry

     CASE: energy            _new < energy            _old

     new trust radius        =       0.0543882483 bohr
     new conv_thr            =       0.0000000006 Ry


ATOMIC_POSITIONS (angstrom)
Ti              -0.3449534790        1.7591927871        3.1078447698
Ti               1.1420353273        0.7984656785        5.4177788236
C                2.6980583098       -0.0321807993        4.2837167925
O                0.2246832208        2.0429207065        6.8797385283
O                1.1342715235        0.8860986734        1.8379767950
H                0.9622753756        0.7532214780        0.8869770443
H               -0.3970202780        1.7383414756        7.5594472466



     Writing config-only to output data dir ./tmp/ti2coh2.save/ :
     XML data file
     NEW-OLD atomic charge density approx. for the potential

     Check: negative core charge=   -0.000005

     negative rho (up, down):  1.532E-03 0.000E+00

     total cpu time spent up to now is      365.7 secs

     Self-consistent Calculation

     iteration #  1     ecut=    40.00 Ry     beta= 0.70
     Davidson diagonalization with overlap
     ethr =  1.00E-06,  avg # of iterations =  8.3

     negative rho (up, down):  1.525E-03 0.000E+00

     total cpu time spent up to now is      367.6 secs

     total energy              =    -471.87708760 Ry
     estimated scf accuracy    <       0.00052425 Ry

     iteration #  2     ecut=    40.00 Ry     beta= 0.70
     Davidson diagonalization with overlap
     c_bands:  1 eigenvalues not converged
     ethr =  1.25E-06,  avg # of iterations = 14.3

     negative rho (up, down):  1.597E-03 0.000E+00

     total cpu time spent up to now is      369.2 secs

     total energy              =    -471.87527041 Ry
     estimated scf accuracy    <       0.04230385 Ry

     iteration #  3     ecut=    40.00 Ry     beta= 0.70
     Davidson diagonalization with overlap
     c_bands:  1 eigenvalues not converged
     ethr =  1.25E-06,  avg # of iterations = 14.7

     negative rho (up, down):  1.568E-03 0.000E+00

     total cpu time spent up to now is      370.7 secs

     total energy              =    -471.87722098 Ry
     estimated scf accuracy    <       0.00069636 Ry

     iteration #  4     ecut=    40.00 Ry     beta= 0.70
     Davidson diagonalization with overlap
     ethr =  1.25E-06,  avg # of iterations =  4.4

     negative rho (up, down):  1.543E-03 0.000E+00

     total cpu time spent up to now is      371.6 secs

     total energy              =    -471.87720189 Ry
     estimated scf accuracy    <       0.00178023 Ry

     iteration #  5     ecut=    40.00 Ry     beta= 0.70
     Davidson diagonalization with overlap
     ethr =  1.25E-06,  avg # of iterations =  2.6

     negative rho (up, down):  1.532E-03 0.000E+00

     total cpu time spent up to now is      372.4 secs

     total energy              =    -471.87734912 Ry
     estimated scf accuracy    <       0.00003297 Ry

     iteration #  6     ecut=    40.00 Ry     beta= 0.70
     Davidson diagonalization with overlap
     ethr =  7.85E-08,  avg # of iterations =  5.0

     negative rho (up, down):  1.526E-03 0.000E+00

     total cpu time spent up to now is      373.4 secs

     total energy              =    -471.87735780 Ry
     estimated scf accuracy    <       0.00000230 Ry

     iteration #  7     ecut=    40.00 Ry     beta= 0.70
     Davidson diagonalization with overlap
     ethr =  5.47E-09,  avg # of iterations =  7.4

     negative rho (up, down):  1.526E-03 0.000E+00

     total cpu time spent up to now is      374.6 secs

     total energy              =    -471.87735896 Ry
     estimated scf accuracy    <       0.00000221 Ry

     iteration #  8     ecut=    40.00 Ry     beta= 0.70
     Davidson diagonalization with overlap
     ethr =  5.26E-09,  avg # of iterations =  1.8

     negative rho (up, down):  1.526E-03 0.000E+00

     total cpu time spent up to now is      375.4 secs

     total energy              =    -471.87735904 Ry
     estimated scf accuracy    <       0.00000066 Ry

     iteration #  9     ecut=    40.00 Ry     beta= 0.70
     Davidson diagonalization with overlap
     ethr =  1.58E-09,  avg # of iterations =  3.4

     negative rho (up, down):  1.526E-03 0.000E+00

     total cpu time spent up to now is      376.3 secs

     total energy              =    -471.87735910 Ry
     estimated scf accuracy    <       0.00000008 Ry

     iteration # 10     ecut=    40.00 Ry     beta= 0.70
     Davidson diagonalization with overlap
     ethr =  1.98E-10,  avg # of iterations =  7.5

     negative rho (up, down):  1.526E-03 0.000E+00

     total cpu time spent up to now is      377.4 secs

     total energy              =    -471.87735913 Ry
     estimated scf accuracy    <       0.00000004 Ry

     iteration # 11     ecut=    40.00 Ry     beta= 0.70
     Davidson diagonalization with overlap
     ethr =  9.78E-11,  avg # of iterations =  4.1

     negative rho (up, down):  1.526E-03 0.000E+00

     total cpu time spent up to now is      378.3 secs

     total energy              =    -471.87735913 Ry
     estimated scf accuracy    <       0.00000001 Ry

     iteration # 12     ecut=    40.00 Ry     beta= 0.70
     Davidson diagonalization with overlap
     ethr =  2.65E-11,  avg # of iterations =  2.9

     negative rho (up, down):  1.526E-03 0.000E+00

     total cpu time spent up to now is      379.2 secs

     total energy              =    -471.87735913 Ry
     estimated scf accuracy    <          1.5E-09 Ry

     iteration # 13     ecut=    40.00 Ry     beta= 0.70
     Davidson diagonalization with overlap
     ethr =  3.58E-12,  avg # of iterations =  6.7

     negative rho (up, down):  1.526E-03 0.000E+00

     total cpu time spent up to now is      380.4 secs

     End of self-consistent calculation

          k = 0.0000 0.0000 0.0000 (  5509 PWs)   bands (ev):

   -55.4794 -55.3257 -31.9621 -31.6106 -31.5875 -31.5144 -31.4126 -31.3803
   -19.7824 -19.0949  -9.9258  -7.5328  -6.1907  -3.0520  -3.0268  -2.6595
    -2.2425  -1.6136  -0.4359  -0.3509   1.8999   2.2102   2.2336   2.3740
     3.3048

          k = 0.0000 0.2887 0.0000 (  5504 PWs)   bands (ev):

   -55.4495 -55.3035 -31.9036 -31.8180 -31.6253 -31.5838 -31.5303 -31.4186
   -19.5972 -18.8871  -9.2089  -7.3876  -6.3147  -3.9424  -3.1718  -3.0453
    -2.6016  -1.7957  -1.4479  -0.7035   1.1230   2.7249   2.9943   3.2631
     3.6771

          k = 0.0000-0.5773 0.0000 (  5552 PWs)   bands (ev):

   -55.4192 -55.2816 -32.0394 -31.8997 -31.6638 -31.6195 -31.5977 -31.4573
   -19.4153 -18.6760  -8.4357  -7.2523  -6.4041  -4.9046  -3.9980  -3.2182
    -2.7663  -2.4296  -1.2673  -0.8220   0.3738   3.8831   4.0807   4.2372
     4.4807

          k = 0.2500 0.1443 0.0000 (  5504 PWs)   bands (ev):

   -55.4502 -55.3036 -31.9021 -31.7582 -31.6569 -31.5894 -31.5204 -31.4475
   -19.5947 -18.8576  -9.2232  -7.4500  -6.4859  -3.9363  -3.2137  -3.1034
    -2.5080  -1.8351  -1.3138  -0.4311   1.2512   2.5709   3.0317   3.0874
     3.6495

          k = 0.2500 0.4330 0.0000 (  5528 PWs)   bands (ev):

   -55.4199 -55.2816 -31.9296 -31.8378 -31.7632 -31.6452 -31.5879 -31.5152
   -19.4107 -18.6408  -8.4337  -7.3325  -6.6296  -4.4998  -3.6171  -3.5229
    -3.0199  -2.2291  -1.6644  -1.2322   2.0850   2.5345   3.6502   4.0129
     4.3061

          k = 0.2500-0.4330 0.0000 (  5528 PWs)   bands (ev):

   -55.4194 -55.2811 -31.9746 -31.8474 -31.7490 -31.6196 -31.5737 -31.5224
   -19.4155 -18.6731  -8.3954  -7.2974  -6.3982  -4.5025  -3.7612  -3.5482
    -2.9159  -2.2740  -1.6720  -1.2867   1.9712   2.3113   3.5626   4.1121
     4.1736

          k = 0.2500-0.1443 0.0000 (  5504 PWs)   bands (ev):

   -55.4497 -55.3031 -31.9006 -31.8102 -31.6166 -31.5947 -31.5296 -31.4317
   -19.5981 -18.8826  -9.2034  -7.3980  -6.3644  -3.9422  -3.1772  -3.0178
    -2.5584  -1.7381  -1.4530  -0.6677   1.1231   2.6891   3.0066   3.2600
     3.6387

          k =-0.5000-0.2887 0.0000 (  5552 PWs)   bands (ev):

   -55.4206 -55.2816 -31.9779 -31.8457 -31.7068 -31.6991 -31.5534 -31.4852
   -19.4095 -18.6067  -8.4872  -7.3432  -6.9441  -4.9249  -3.5941  -3.2714
    -2.7494  -2.4941  -1.0091  -0.3869   0.4514   3.5603   4.1536   4.1876
     4.4715

          k =-0.5000-0.0000 0.0000 (  5528 PWs)   bands (ev):

   -55.4201 -55.2811 -31.9168 -31.8291 -31.7768 -31.6423 -31.6067 -31.5108
   -19.4122 -18.6358  -8.4425  -7.3255  -6.6867  -4.5049  -3.6108  -3.4798
    -2.9782  -2.1707  -1.6689  -1.2304   2.1132   2.5450   3.5904   4.0083
     4.2800

          k =-0.5000-0.8660 0.0000 (  5552 PWs)   bands (ev):

   -55.4196 -55.2807 -32.0302 -31.8835 -31.6871 -31.6351 -31.5780 -31.4707
   -19.4178 -18.6664  -8.4315  -7.2508  -6.5296  -4.9410  -3.9136  -3.1719
    -2.6977  -2.3842  -1.2383  -0.7465   0.3576   3.8381   4.0651   4.2291
     4.4339

     the Fermi energy is     2.2050 ev

!    total energy              =    -471.87735913 Ry
     total all-electron energy =     -3795.181048 Ry
     estimated scf accuracy    <          1.6E-10 Ry
     smearing contrib. (-TS)   =      -0.00247833 Ry
     internal energy E=F+TS    =    -471.87488080 Ry

     The total energy is F=E-TS. E is the sum of the following terms:
     one-electron contribution =   -3231.76948852 Ry
     hartree contribution      =    1622.09734130 Ry
     xc contribution           =     -58.25983242 Ry
     ewald contribution        =    1352.04317293 Ry
     one-center paw contrib.   =    -155.98607410 Ry

     convergence has been achieved in  13 iterations

     negative rho (up, down):  1.526E-03 0.000E+00

     Forces acting on atoms (cartesian axes, Ry/au):

     atom    1 type  1   force =    -0.00246862   -0.00521710   -0.00076874
     atom    2 type  1   force =     0.00238162    0.01111753    0.00234394
     atom    3 type  2   force =     0.00250883    0.00205951   -0.00086816
     atom    4 type  3   force =    -0.00184183    0.00059840   -0.00302269
     atom    5 type  3   force =     0.00086539   -0.00622817    0.00056393
     atom    6 type  4   force =     0.00413817    0.00231672   -0.00143610
     atom    7 type  4   force =    -0.00558356   -0.00464688    0.00318783

     Total force =     0.017894     Total SCF correction =     0.000056
     Energy error            =      4.5E-04 Ry
     Gradient error          =      1.1E-02 Ry/Bohr

     number of scf cycles    =  19
     number of bfgs steps    =  18

     energy             old  =    -471.8769055694 Ry
     energy             new  =    -471.8773591338 Ry

     CASE: energy            _new < energy            _old

     new trust radius        =       0.0598270731 bohr
     new conv_thr            =       0.0000000005 Ry


ATOMIC_POSITIONS (angstrom)
Ti              -0.3478799343        1.7680717439        3.1075754444
Ti               1.1433371892        0.8030364630        5.4206393552
C                2.7003536621       -0.0271285499        4.2933411999
O                0.2083967176        2.0301157306        6.8741784036
O                1.1326389499        0.8897463000        1.8421013770
H                0.9915457277        0.7650243129        0.8844791074
H               -0.4090423122        1.7171939994        7.5511651126



     Writing config-only to output data dir ./tmp/ti2coh2.save/ :
     XML data file
     NEW-OLD atomic charge density approx. for the potential

     Check: negative core charge=   -0.000005

     negative rho (up, down):  1.528E-03 0.000E+00

     total cpu time spent up to now is      381.1 secs

     Self-consistent Calculation

     iteration #  1     ecut=    40.00 Ry     beta= 0.70
     Davidson diagonalization with overlap
     ethr =  1.00E-06,  avg # of iterations =  8.1

     negative rho (up, down):  1.520E-03 0.000E+00

     total cpu time spent up to now is      383.0 secs

     total energy              =    -471.87767613 Ry
     estimated scf accuracy    <       0.00048183 Ry

     iteration #  2     ecut=    40.00 Ry     beta= 0.70
     Davidson diagonalization with overlap
     ethr =  1.15E-06,  avg # of iterations = 12.0

     negative rho (up, down):  1.578E-03 0.000E+00

     total cpu time spent up to now is      384.5 secs

     total energy              =    -471.87638509 Ry
     estimated scf accuracy    <       0.02684591 Ry

     iteration #  3     ecut=    40.00 Ry     beta= 0.70
     Davidson diagonalization with overlap
     ethr =  1.15E-06,  avg # of iterations = 11.7

     negative rho (up, down):  1.563E-03 0.000E+00

     total cpu time spent up to now is      385.9 secs

     total energy              =    -471.87772268 Ry
     estimated scf accuracy    <       0.00124226 Ry

     iteration #  4     ecut=    40.00 Ry     beta= 0.70
     Davidson diagonalization with overlap
     ethr =  1.15E-06,  avg # of iterations =  4.2

     negative rho (up, down):  1.538E-03 0.000E+00

     total cpu time spent up to now is      386.8 secs

     total energy              =    -471.87773195 Ry
     estimated scf accuracy    <       0.00179535 Ry

     iteration #  5     ecut=    40.00 Ry     beta= 0.70
     Davidson diagonalization with overlap
     ethr =  1.15E-06,  avg # of iterations =  2.3

     negative rho (up, down):  1.527E-03 0.000E+00

     total cpu time spent up to now is      387.7 secs

     total energy              =    -471.87788337 Ry
     estimated scf accuracy    <       0.00003982 Ry

     iteration #  6     ecut=    40.00 Ry     beta= 0.70
     Davidson diagonalization with overlap
     ethr =  9.48E-08,  avg # of iterations =  3.7

     negative rho (up, down):  1.520E-03 0.000E+00

     total cpu time spent up to now is      388.6 secs

     total energy              =    -471.87789302 Ry
     estimated scf accuracy    <       0.00000208 Ry

     iteration #  7     ecut=    40.00 Ry     beta= 0.70
     Davidson diagonalization with overlap
     ethr =  4.96E-09,  avg # of iterations =  8.2

     negative rho (up, down):  1.520E-03 0.000E+00

     total cpu time spent up to now is      389.9 secs

     total energy              =    -471.87789442 Ry
     estimated scf accuracy    <       0.00000240 Ry

     iteration #  8     ecut=    40.00 Ry     beta= 0.70
     Davidson diagonalization with overlap
     ethr =  4.96E-09,  avg # of iterations =  2.0

     negative rho (up, down):  1.520E-03 0.000E+00

     total cpu time spent up to now is      390.7 secs

     total energy              =    -471.87789457 Ry
     estimated scf accuracy    <       0.00000076 Ry

     iteration #  9     ecut=    40.00 Ry     beta= 0.70
     Davidson diagonalization with overlap
     ethr =  1.81E-09,  avg # of iterations =  2.1

     negative rho (up, down):  1.521E-03 0.000E+00

     total cpu time spent up to now is      391.6 secs

     total energy              =    -471.87789463 Ry
     estimated scf accuracy    <       0.00000016 Ry

     iteration # 10     ecut=    40.00 Ry     beta= 0.70
     Davidson diagonalization with overlap
     ethr =  3.84E-10,  avg # of iterations =  7.7

     negative rho (up, down):  1.521E-03 0.000E+00

     total cpu time spent up to now is      392.7 secs

     total energy              =    -471.87789466 Ry
     estimated scf accuracy    <       0.00000006 Ry

     iteration # 11     ecut=    40.00 Ry     beta= 0.70
     Davidson diagonalization with overlap
     ethr =  1.47E-10,  avg # of iterations =  2.4

     negative rho (up, down):  1.521E-03 0.000E+00

     total cpu time spent up to now is      395.8 secs

     total energy              =    -471.87789467 Ry
     estimated scf accuracy    <          8.2E-09 Ry

     iteration # 12     ecut=    40.00 Ry     beta= 0.70
     Davidson diagonalization with overlap
     ethr =  1.95E-11,  avg # of iterations =  5.7

     negative rho (up, down):  1.521E-03 0.000E+00

     total cpu time spent up to now is      396.8 secs

     total energy              =    -471.87789467 Ry
     estimated scf accuracy    <          5.6E-10 Ry

     iteration # 13     ecut=    40.00 Ry     beta= 0.70
     Davidson diagonalization with overlap
     ethr =  1.32E-12,  avg # of iterations =  6.8

     negative rho (up, down):  1.521E-03 0.000E+00

     total cpu time spent up to now is      398.0 secs

     End of self-consistent calculation

          k = 0.0000 0.0000 0.0000 (  5509 PWs)   bands (ev):

   -55.4760 -55.3228 -31.9571 -31.6091 -31.5841 -31.5100 -31.4126 -31.3789
   -19.7853 -19.1527  -9.9242  -7.5559  -6.2315  -3.0636  -3.0223  -2.6938
    -2.2989  -1.6263  -0.4371  -0.3377   1.9021   2.2214   2.2357   2.3771
     3.2842

          k = 0.0000 0.2887 0.0000 (  5504 PWs)   bands (ev):

   -55.4462 -55.3005 -31.8985 -31.8156 -31.6253 -31.5797 -31.5281 -31.4174
   -19.6007 -18.9450  -9.2051  -7.4029  -6.3701  -3.9560  -3.2048  -3.0586
    -2.6347  -1.8057  -1.4444  -0.6978   1.1299   2.7346   2.9949   3.2680
     3.6800

          k = 0.0000-0.5773 0.0000 (  5552 PWs)   bands (ev):

   -55.4160 -55.2784 -32.0365 -31.8987 -31.6610 -31.6154 -31.5949 -31.4563
   -19.4196 -18.7343  -8.4277  -7.2613  -6.4707  -4.9174  -4.0301  -3.2223
    -2.7831  -2.4597  -1.2718  -0.8171   0.3829   3.8805   4.0862   4.2518
     4.4835

          k = 0.2500 0.1443 0.0000 (  5504 PWs)   bands (ev):

   -55.4469 -55.3006 -31.8969 -31.7540 -31.6545 -31.5869 -31.5193 -31.4474
   -19.5987 -18.9160  -9.2238  -7.4594  -6.5319  -3.9457  -3.2554  -3.1188
    -2.5612  -1.8321  -1.3135  -0.4206   1.2485   2.5884   3.0384   3.0910
     3.6467

          k = 0.2500 0.4330 0.0000 (  5528 PWs)   bands (ev):

   -55.4167 -55.2784 -31.9259 -31.8354 -31.7583 -31.6437 -31.5859 -31.5146
   -19.4156 -18.6995  -8.4286  -7.3348  -6.6909  -4.5121  -3.6393  -3.5477
    -3.0560  -2.2463  -1.6605  -1.2341   2.1048   2.5324   3.6662   4.0171
     4.3143

          k = 0.2500-0.4330 0.0000 (  5528 PWs)   bands (ev):

   -55.4162 -55.2779 -31.9716 -31.8452 -31.7451 -31.6176 -31.5707 -31.5218
   -19.4196 -18.7323  -8.3889  -7.3074  -6.4527  -4.5119  -3.8031  -3.5578
    -2.9624  -2.2671  -1.6694  -1.2901   1.9964   2.3144   3.5783   4.1102
     4.1760

          k = 0.2500-0.1443 0.0000 (  5504 PWs)   bands (ev):

   -55.4464 -55.3001 -31.8954 -31.8074 -31.6156 -31.5912 -31.5272 -31.4315
   -19.6015 -18.9414  -9.1998  -7.4137  -6.4112  -3.9558  -3.2141  -3.0322
    -2.5985  -1.7399  -1.4505  -0.6547   1.1305   2.6968   3.0068   3.2662
     3.6367

          k =-0.5000-0.2887 0.0000 (  5552 PWs)   bands (ev):

   -55.4174 -55.2785 -31.9730 -31.8426 -31.7044 -31.6964 -31.5511 -31.4852
   -19.4148 -18.6661  -8.4880  -7.3443  -6.9881  -4.9351  -3.6317  -3.2860
    -2.7996  -2.5056  -1.0175  -0.3770   0.4452   3.5568   4.1688   4.2062
     4.4774

          k =-0.5000-0.0000 0.0000 (  5528 PWs)   bands (ev):

   -55.4170 -55.2780 -31.9120 -31.8261 -31.7726 -31.6423 -31.6047 -31.5097
   -19.4169 -18.6956  -8.4387  -7.3277  -6.7371  -4.5199  -3.6293  -3.5158
    -3.0212  -2.1731  -1.6693  -1.2296   2.1346   2.5457   3.6040   4.0220
     4.2796

          k =-0.5000-0.8660 0.0000 (  5552 PWs)   bands (ev):

   -55.4165 -55.2775 -32.0266 -31.8810 -31.6867 -31.6317 -31.5731 -31.4707
   -19.4218 -18.7266  -8.4241  -7.2608  -6.5726  -4.9595  -3.9609  -3.1832
    -2.7097  -2.4099  -1.2386  -0.7278   0.3616   3.8306   4.0792   4.2348
     4.4327

     the Fermi energy is     2.2193 ev

!    total energy              =    -471.87789467 Ry
     total all-electron energy =     -3795.181584 Ry
     estimated scf accuracy    <          2.2E-11 Ry
     smearing contrib. (-TS)   =      -0.00268961 Ry
     internal energy E=F+TS    =    -471.87520506 Ry

     The total energy is F=E-TS. E is the sum of the following terms:
     one-electron contribution =   -3233.58634966 Ry
     hartree contribution      =    1622.99394496 Ry
     xc contribution           =     -58.26323079 Ry
     ewald contribution        =    1352.96647161 Ry
     one-center paw contrib.   =    -155.98604118 Ry

     convergence has been achieved in  13 iterations

     negative rho (up, down):  1.521E-03 0.000E+00

     Forces acting on atoms (cartesian axes, Ry/au):

     atom    1 type  1   force =    -0.00107680   -0.00710835    0.00288258
     atom    2 type  1   force =     0.00373046    0.01104461    0.00093424
     atom    3 type  2   force =     0.00110702    0.00269328   -0.00567377
     atom    4 type  3   force =    -0.00101449    0.00188242   -0.00322974
     atom    5 type  3   force =     0.00159018   -0.00539423   -0.00049383
     atom    6 type  4   force =     0.00340956    0.00229071   -0.00079184
     atom    7 type  4   force =    -0.00774593   -0.00540845    0.00637236

     Total force =     0.020777     Total SCF correction =     0.000021
     Energy error            =      5.4E-04 Ry
     Gradient error          =      1.1E-02 Ry/Bohr

     number of scf cycles    =  20
     number of bfgs steps    =  19

     energy             old  =    -471.8773591338 Ry
     energy             new  =    -471.8778946704 Ry

     CASE: energy            _new < energy            _old

     new trust radius        =       0.0897406096 bohr
     new conv_thr            =       0.0000000005 Ry


ATOMIC_POSITIONS (angstrom)
Ti              -0.3520688120        1.7776645814        3.1083137736
Ti               1.1471925184        0.8150157616        5.4247791429
C                2.7039988007       -0.0184246177        4.3049401481
O                0.1826609335        2.0121193270        6.8669939675
O                1.1313056989        0.8916365614        1.8471577200
H                1.0351567049        0.7834242779        0.8806451529
H               -0.4288958444        1.6846241084        7.5406500950



     Writing config-only to output data dir ./tmp/ti2coh2.save/ :
     XML data file
     NEW-OLD atomic charge density approx. for the potential

     Check: negative core charge=   -0.000005

     negative rho (up, down):  1.521E-03 0.000E+00

     total cpu time spent up to now is      398.7 secs

     Self-consistent Calculation

     iteration #  1     ecut=    40.00 Ry     beta= 0.70
     Davidson diagonalization with overlap
     ethr =  1.00E-06,  avg # of iterations =  9.9

     negative rho (up, down):  1.510E-03 0.000E+00

     total cpu time spent up to now is      400.8 secs

     total energy              =    -471.87836926 Ry
     estimated scf accuracy    <       0.00086913 Ry

     iteration #  2     ecut=    40.00 Ry     beta= 0.70
     Davidson diagonalization with overlap
     ethr =  2.07E-06,  avg # of iterations =  9.9

     negative rho (up, down):  1.632E-03 0.000E+00

     total cpu time spent up to now is      402.2 secs

     total energy              =    -471.87688310 Ry
     estimated scf accuracy    <       0.02353648 Ry

     iteration #  3     ecut=    40.00 Ry     beta= 0.70
     Davidson diagonalization with overlap
     c_bands:  1 eigenvalues not converged
     ethr =  2.07E-06,  avg # of iterations = 13.4

     negative rho (up, down):  1.595E-03 0.000E+00

     total cpu time spent up to now is      403.6 secs

     total energy              =    -471.87830489 Ry
     estimated scf accuracy    <       0.00493866 Ry

     iteration #  4     ecut=    40.00 Ry     beta= 0.70
     Davidson diagonalization with overlap
     ethr =  2.07E-06,  avg # of iterations =  5.0

     negative rho (up, down):  1.565E-03 0.000E+00

     total cpu time spent up to now is      404.6 secs

     total energy              =    -471.87837669 Ry
     estimated scf accuracy    <       0.00326581 Ry

     iteration #  5     ecut=    40.00 Ry     beta= 0.70
     Davidson diagonalization with overlap
     ethr =  2.07E-06,  avg # of iterations =  3.5

     negative rho (up, down):  1.531E-03 0.000E+00

     total cpu time spent up to now is      405.5 secs

     total energy              =    -471.87866477 Ry
     estimated scf accuracy    <       0.00008469 Ry

     iteration #  6     ecut=    40.00 Ry     beta= 0.70
     Davidson diagonalization with overlap
     ethr =  2.02E-07,  avg # of iterations =  6.5

     negative rho (up, down):  1.509E-03 0.000E+00

     total cpu time spent up to now is      406.5 secs

     total energy              =    -471.87869217 Ry
     estimated scf accuracy    <       0.00000794 Ry

     iteration #  7     ecut=    40.00 Ry     beta= 0.70
     Davidson diagonalization with overlap
     ethr =  1.89E-08,  avg # of iterations =  5.4

     negative rho (up, down):  1.508E-03 0.000E+00

     total cpu time spent up to now is      407.5 secs

     total energy              =    -471.87869431 Ry
     estimated scf accuracy    <       0.00000559 Ry

     iteration #  8     ecut=    40.00 Ry     beta= 0.70
     Davidson diagonalization with overlap
     ethr =  1.33E-08,  avg # of iterations =  1.8

     negative rho (up, down):  1.509E-03 0.000E+00

     total cpu time spent up to now is      408.3 secs

     total energy              =    -471.87869460 Ry
     estimated scf accuracy    <       0.00000053 Ry

     iteration #  9     ecut=    40.00 Ry     beta= 0.70
     Davidson diagonalization with overlap
     ethr =  1.27E-09,  avg # of iterations =  5.6

     negative rho (up, down):  1.509E-03 0.000E+00

     total cpu time spent up to now is      409.4 secs

     total energy              =    -471.87869479 Ry
     estimated scf accuracy    <       0.00000011 Ry

     iteration # 10     ecut=    40.00 Ry     beta= 0.70
     Davidson diagonalization with overlap
     ethr =  2.65E-10,  avg # of iterations =  4.1

     negative rho (up, down):  1.509E-03 0.000E+00

     total cpu time spent up to now is      410.3 secs

     total energy              =    -471.87869481 Ry
     estimated scf accuracy    <       0.00000007 Ry

     iteration # 11     ecut=    40.00 Ry     beta= 0.70
     Davidson diagonalization with overlap
     ethr =  1.66E-10,  avg # of iterations =  1.3

     negative rho (up, down):  1.510E-03 0.000E+00

     total cpu time spent up to now is      411.1 secs

     total energy              =    -471.87869481 Ry
     estimated scf accuracy    <       0.00000002 Ry

     iteration # 12     ecut=    40.00 Ry     beta= 0.70
     Davidson diagonalization with overlap
     ethr =  4.33E-11,  avg # of iterations =  4.5

     negative rho (up, down):  1.510E-03 0.000E+00

     total cpu time spent up to now is      412.1 secs

     total energy              =    -471.87869481 Ry
     estimated scf accuracy    <          1.1E-09 Ry

     iteration # 13     ecut=    40.00 Ry     beta= 0.70
     Davidson diagonalization with overlap
     ethr =  2.65E-12,  avg # of iterations =  7.8

     negative rho (up, down):  1.510E-03 0.000E+00

     total cpu time spent up to now is      413.3 secs

     total energy              =    -471.87869481 Ry
     estimated scf accuracy    <          8.9E-10 Ry

     iteration # 14     ecut=    40.00 Ry     beta= 0.70
     Davidson diagonalization with overlap
     ethr =  2.12E-12,  avg # of iterations =  1.7

     negative rho (up, down):  1.510E-03 0.000E+00

     total cpu time spent up to now is      414.1 secs

     End of self-consistent calculation

          k = 0.0000 0.0000 0.0000 (  5509 PWs)   bands (ev):

   -55.4681 -55.3208 -31.9490 -31.6020 -31.5785 -31.5024 -31.4135 -31.3802
   -19.7741 -19.2233  -9.9209  -7.5749  -6.2821  -3.0701  -3.0038  -2.7475
    -2.3713  -1.6337  -0.4389  -0.3173   1.9119   2.2330   2.2458   2.3743
     3.2532

          k = 0.0000 0.2887 0.0000 (  5504 PWs)   bands (ev):

   -55.4383 -55.2985 -31.8900 -31.8079 -31.6248 -31.5725 -31.5251 -31.4189
   -19.5902 -19.0153  -9.1991  -7.4114  -6.4439  -3.9637  -3.2527  -3.0591
    -2.6792  -1.8154  -1.4355  -0.6853   1.1398   2.7513   2.9940   3.2742
     3.6813

          k = 0.0000-0.5773 0.0000 (  5552 PWs)   bands (ev):

   -55.4080 -55.2764 -32.0283 -31.8958 -31.6572 -31.6089 -31.5901 -31.4577
   -19.4100 -18.8046  -8.4170  -7.2608  -6.5623  -4.9290  -4.0693  -3.2155
    -2.8054  -2.4874  -1.2732  -0.8033   0.3936   3.8660   4.0959   4.2783
     4.4892

          k = 0.2500 0.1443 0.0000 (  5504 PWs)   bands (ev):

   -55.4390 -55.2986 -31.8887 -31.7463 -31.6469 -31.5837 -31.5187 -31.4486
   -19.5887 -18.9872  -9.2245  -7.4604  -6.5891  -3.9478  -3.3112  -3.1258
    -2.6280  -1.8321  -1.3162  -0.4105   1.2398   2.6203   3.0496   3.0956
     3.6490

          k = 0.2500 0.4330 0.0000 (  5528 PWs)   bands (ev):

   -55.4088 -55.2764 -31.9174 -31.8306 -31.7501 -31.6402 -31.5849 -31.5152
   -19.4065 -18.7706  -8.4227  -7.3251  -6.7735  -4.5167  -3.6697  -3.5641
    -3.1025  -2.2692  -1.6560  -1.2376   2.1364   2.5245   3.6869   4.0301
     4.3237

          k = 0.2500-0.4330 0.0000 (  5528 PWs)   bands (ev):

   -55.4083 -55.2759 -31.9636 -31.8413 -31.7390 -31.6132 -31.5674 -31.5225
   -19.4097 -18.8042  -8.3820  -7.3080  -6.5230  -4.5137  -3.8597  -3.5605
    -3.0253  -2.2484  -1.6659  -1.2970   2.0373   2.3187   3.6020   4.1038
     4.1798

          k = 0.2500-0.1443 0.0000 (  5504 PWs)   bands (ev):

   -55.4385 -55.2981 -31.8873 -31.8000 -31.6151 -31.5838 -31.5241 -31.4324
   -19.5907 -19.0132  -9.1945  -7.4224  -6.4699  -3.9637  -3.2645  -3.0391
    -2.6531  -1.7445  -1.4443  -0.6392   1.1401   2.7165   3.0057   3.2744
     3.6363

          k =-0.5000-0.2887 0.0000 (  5552 PWs)   bands (ev):

   -55.4095 -55.2765 -31.9647 -31.8388 -31.6969 -31.6908 -31.5490 -31.4863
   -19.4063 -18.7382  -8.4901  -7.3417  -7.0367  -4.9349  -3.6791  -3.2925
    -2.8616  -2.5285  -1.0376  -0.3720   0.4334   3.5615   4.1769   4.2479
     4.4893

          k =-0.5000-0.0000 0.0000 (  5528 PWs)   bands (ev):

   -55.4090 -55.2759 -31.9038 -31.8210 -31.7643 -31.6423 -31.6007 -31.5098
   -19.4074 -18.7684  -8.4335  -7.3194  -6.8011  -4.5265  -3.6583  -3.5491
    -3.0785  -2.1822  -1.6693  -1.2320   2.1627   2.5400   3.6264   4.0477
     4.2808

          k =-0.5000-0.8660 0.0000 (  5552 PWs)   bands (ev):

   -55.4086 -55.2754 -32.0188 -31.8785 -31.6837 -31.6250 -31.5669 -31.4718
   -19.4115 -18.8003  -8.4147  -7.2632  -6.6238  -4.9737  -4.0270  -3.1880
    -2.7341  -2.4329  -1.2416  -0.7071   0.3672   3.8115   4.1064   4.2527
     4.4385

     the Fermi energy is     2.2402 ev

!    total energy              =    -471.87869481 Ry
     total all-electron energy =     -3795.182384 Ry
     estimated scf accuracy    <          2.5E-10 Ry
     smearing contrib. (-TS)   =      -0.00306523 Ry
     internal energy E=F+TS    =    -471.87562959 Ry

     The total energy is F=E-TS. E is the sum of the following terms:
     one-electron contribution =   -3235.94659074 Ry
     hartree contribution      =    1624.16130035 Ry
     xc contribution           =     -58.26503120 Ry
     ewald contribution        =    1354.16066331 Ry
     one-center paw contrib.   =    -155.98597131 Ry

     convergence has been achieved in  14 iterations

     negative rho (up, down):  1.510E-03 0.000E+00

     Forces acting on atoms (cartesian axes, Ry/au):

     atom    1 type  1   force =     0.00148937   -0.00856548    0.00659512
     atom    2 type  1   force =     0.00517832    0.00951608   -0.00076092
     atom    3 type  2   force =    -0.00062854    0.00328498   -0.01095178
     atom    4 type  3   force =    -0.00186823    0.00300271   -0.00241238
     atom    5 type  3   force =     0.00233677   -0.00394871   -0.00279212
     atom    6 type  4   force =     0.00235830    0.00225438    0.00147091
     atom    7 type  4   force =    -0.00886599   -0.00554395    0.00885118

     Total force =     0.024816     Total SCF correction =     0.000084
     Energy error            =      8.0E-04 Ry
     Gradient error          =      1.1E-02 Ry/Bohr

     number of scf cycles    =  21
     number of bfgs steps    =  20

     energy             old  =    -471.8778946704 Ry
     energy             new  =    -471.8786948141 Ry

     CASE: energy            _new < energy            _old

     new trust radius        =       0.1346109145 bohr
     new conv_thr            =       0.0000000008 Ry


ATOMIC_POSITIONS (angstrom)
Ti              -0.3570694990        1.7873562091        3.1111524562
Ti               1.1554121814        0.8380240037        5.4302167368
C                2.7092997146       -0.0041684233        4.3179286021
O                0.1410861840        1.9861631074        6.8570616080
O                1.1309419396        0.8921127172        1.8533225824
H                1.1003077765        0.8119444358        0.8766348188
H               -0.4606282971        1.6346279502        7.5271631957



     Writing config-only to output data dir ./tmp/ti2coh2.save/ :
     XML data file
     NEW-OLD atomic charge density approx. for the potential

     Check: negative core charge=   -0.000005

     negative rho (up, down):  1.513E-03 0.000E+00

     total cpu time spent up to now is      414.8 secs

     Self-consistent Calculation

     iteration #  1     ecut=    40.00 Ry     beta= 0.70
     Davidson diagonalization with overlap
     ethr =  1.00E-06,  avg # of iterations = 12.6

     negative rho (up, down):  1.501E-03 0.000E+00

     total cpu time spent up to now is      417.3 secs

     total energy              =    -471.87922927 Ry
     estimated scf accuracy    <       0.00178650 Ry

     iteration #  2     ecut=    40.00 Ry     beta= 0.70
     Davidson diagonalization with overlap
     ethr =  4.25E-06,  avg # of iterations =  6.4

     negative rho (up, down):  1.750E-03 0.000E+00

     total cpu time spent up to now is      418.4 secs

     total energy              =    -471.87750666 Ry
     estimated scf accuracy    <       0.01557572 Ry

     iteration #  3     ecut=    40.00 Ry     beta= 0.70
     Davidson diagonalization with overlap
     ethr =  4.25E-06,  avg # of iterations =  9.5

     negative rho (up, down):  1.640E-03 0.000E+00

     total cpu time spent up to now is      419.7 secs

     total energy              =    -471.87853172 Ry
     estimated scf accuracy    <       0.02448206 Ry

     iteration #  4     ecut=    40.00 Ry     beta= 0.70
     Davidson diagonalization with overlap
     ethr =  4.25E-06,  avg # of iterations =  5.4

     negative rho (up, down):  1.666E-03 0.000E+00

     total cpu time spent up to now is      420.7 secs

     total energy              =    -471.87930676 Ry
     estimated scf accuracy    <       0.00395695 Ry

     iteration #  5     ecut=    40.00 Ry     beta= 0.70
     Davidson diagonalization with overlap
     ethr =  4.25E-06,  avg # of iterations =  2.4

     negative rho (up, down):  1.556E-03 0.000E+00

     total cpu time spent up to now is      421.6 secs

     total energy              =    -471.87972564 Ry
     estimated scf accuracy    <       0.00017105 Ry

     iteration #  6     ecut=    40.00 Ry     beta= 0.70
     Davidson diagonalization with overlap
     ethr =  4.07E-07,  avg # of iterations =  7.8

     negative rho (up, down):  1.497E-03 0.000E+00

     total cpu time spent up to now is      422.7 secs

     total energy              =    -471.87979560 Ry
     estimated scf accuracy    <       0.00008626 Ry

     iteration #  7     ecut=    40.00 Ry     beta= 0.70
     Davidson diagonalization with overlap
     ethr =  2.05E-07,  avg # of iterations =  1.8

     negative rho (up, down):  1.494E-03 0.000E+00

     total cpu time spent up to now is      423.5 secs

     total energy              =    -471.87979859 Ry
     estimated scf accuracy    <       0.00002170 Ry

     iteration #  8     ecut=    40.00 Ry     beta= 0.70
     Davidson diagonalization with overlap
     ethr =  5.17E-08,  avg # of iterations =  4.3

     negative rho (up, down):  1.496E-03 0.000E+00

     total cpu time spent up to now is      424.5 secs

     total energy              =    -471.87980086 Ry
     estimated scf accuracy    <       0.00000059 Ry

     iteration #  9     ecut=    40.00 Ry     beta= 0.70
     Davidson diagonalization with overlap
     ethr =  1.40E-09,  avg # of iterations = 10.2

     negative rho (up, down):  1.496E-03 0.000E+00

     total cpu time spent up to now is      425.8 secs

     total energy              =    -471.87980164 Ry
     estimated scf accuracy    <       0.00000243 Ry

     iteration # 10     ecut=    40.00 Ry     beta= 0.70
     Davidson diagonalization with overlap
     ethr =  1.40E-09,  avg # of iterations =  2.1

     negative rho (up, down):  1.496E-03 0.000E+00

     total cpu time spent up to now is      426.7 secs

     total energy              =    -471.87980166 Ry
     estimated scf accuracy    <       0.00000071 Ry

     iteration # 11     ecut=    40.00 Ry     beta= 0.70
     Davidson diagonalization with overlap
     ethr =  1.40E-09,  avg # of iterations =  2.0

     negative rho (up, down):  1.496E-03 0.000E+00

     total cpu time spent up to now is      429.7 secs

     total energy              =    -471.87980168 Ry
     estimated scf accuracy    <       0.00000009 Ry

     iteration # 12     ecut=    40.00 Ry     beta= 0.70
     Davidson diagonalization with overlap
     ethr =  2.26E-10,  avg # of iterations =  6.5

     negative rho (up, down):  1.496E-03 0.000E+00

     total cpu time spent up to now is      430.7 secs

     total energy              =    -471.87980171 Ry
     estimated scf accuracy    <       0.00000001 Ry

     iteration # 13     ecut=    40.00 Ry     beta= 0.70
     Davidson diagonalization with overlap
     ethr =  2.81E-11,  avg # of iterations =  4.6

     negative rho (up, down):  1.496E-03 0.000E+00

     total cpu time spent up to now is      431.7 secs

     total energy              =    -471.87980171 Ry
     estimated scf accuracy    <       0.00000001 Ry

     iteration # 14     ecut=    40.00 Ry     beta= 0.70
     Davidson diagonalization with overlap
     ethr =  2.74E-11,  avg # of iterations =  1.6

     negative rho (up, down):  1.496E-03 0.000E+00

     total cpu time spent up to now is      432.5 secs

     total energy              =    -471.87980171 Ry
     estimated scf accuracy    <          1.7E-09 Ry

     iteration # 15     ecut=    40.00 Ry     beta= 0.70
     Davidson diagonalization with overlap
     ethr =  4.08E-12,  avg # of iterations =  4.9

     negative rho (up, down):  1.496E-03 0.000E+00

     total cpu time spent up to now is      433.4 secs

     End of self-consistent calculation

          k = 0.0000 0.0000 0.0000 (  5509 PWs)   bands (ev):

   -55.4503 -55.3178 -31.9346 -31.5824 -31.5655 -31.4880 -31.4127 -31.3831
   -19.7358 -19.3092  -9.9124  -7.5789  -6.3431  -3.0612  -2.9711  -2.8231
    -2.4586  -1.6289  -0.4395  -0.2821   1.9359   2.2387   2.2741   2.3708
     3.2054

          k = 0.0000 0.2887 0.0000 (  5504 PWs)   bands (ev):

   -55.4201 -55.2956 -31.8744 -31.7883 -31.6205 -31.5583 -31.5178 -31.4218
   -19.5522 -19.1003  -9.1878  -7.4007  -6.5430  -3.9586  -3.3178  -3.0384
    -2.7357  -1.8200  -1.4153  -0.6613   1.1556   2.7846   2.9947   3.2832
     3.6824

          k = 0.0000-0.5773 0.0000 (  5552 PWs)   bands (ev):

   -55.3895 -55.2738 -32.0082 -31.8873 -31.6500 -31.5974 -31.5778 -31.4601
   -19.3726 -18.8889  -8.4018  -7.2389  -6.6892  -4.9337  -4.1145  -3.1905
    -2.8409  -2.4964  -1.2659  -0.7730   0.4069   3.8339   4.1165   4.3279
     4.5072

          k = 0.2500 0.1443 0.0000 (  5504 PWs)   bands (ev):

   -55.4208 -55.2958 -31.8741 -31.7312 -31.6265 -31.5776 -31.5153 -31.4488
   -19.5512 -19.0738  -9.2231  -7.4425  -6.6585  -3.9353  -3.3828  -3.1137
    -2.7042  -1.8335  -1.3254  -0.4023   1.2227   2.6791   3.0666   3.1088
     3.6634

          k = 0.2500 0.4330 0.0000 (  5528 PWs)   bands (ev):

   -55.3902 -55.2739 -31.8982 -31.8198 -31.7351 -31.6304 -31.5822 -31.5145
   -19.3696 -18.8565  -8.4144  -7.2922  -6.8840  -4.5029  -3.7129  -3.5573
    -3.1601  -2.2965  -1.6487  -1.2412   2.1876   2.5078   3.7174   4.0609
     4.3354

          k = 0.2500-0.4330 0.0000 (  5528 PWs)   bands (ev):

   -55.3898 -55.2733 -31.9434 -31.8329 -31.7272 -31.6028 -31.5624 -31.5206
   -19.3716 -18.8912  -8.3734  -7.2869  -6.6137  -4.4990  -3.9338  -3.5507
    -3.1063  -2.2088  -1.6597  -1.3058   2.1030   2.3281   3.6426   4.0934
     4.1880

          k = 0.2500-0.1443 0.0000 (  5504 PWs)   bands (ev):

   -55.4204 -55.2952 -31.8726 -31.7822 -31.6130 -31.5674 -31.5169 -31.4316
   -19.5523 -19.1009  -9.1845  -7.4117  -6.5431  -3.9590  -3.3288  -3.0298
    -2.7232  -1.7512  -1.4307  -0.6211   1.1540   2.7591   3.0079   3.2880
     3.6400

          k =-0.5000-0.2887 0.0000 (  5552 PWs)   bands (ev):

   -55.3909 -55.2741 -31.9494 -31.8331 -31.6785 -31.6756 -31.5442 -31.4861
   -19.3698 -18.8260  -8.4929  -7.3447  -7.0727  -4.9093  -3.7377  -3.2815
    -2.9293  -2.5669  -1.0756  -0.3771   0.4134   3.5847   4.1825   4.3185
     4.5129

          k =-0.5000-0.0000 0.0000 (  5528 PWs)   bands (ev):

   -55.3905 -55.2734 -31.8877 -31.8110 -31.7474 -31.6380 -31.5903 -31.5085
   -19.3699 -18.8574  -8.4243  -7.2902  -6.8803  -4.5127  -3.7169  -3.5552
    -3.1496  -2.2015  -1.6656  -1.2382   2.2017   2.5239   3.6639   4.0937
     4.2848

          k =-0.5000-0.8660 0.0000 (  5552 PWs)   bands (ev):

   -55.3901 -55.2728 -32.0008 -31.8743 -31.6735 -31.6109 -31.5560 -31.4706
   -19.3730 -18.8905  -8.4012  -7.2465  -6.6816  -4.9779  -4.1169  -3.1784
    -2.7789  -2.4396  -1.2472  -0.6831   0.3757   3.7781   4.1450   4.3042
     4.4630

     the Fermi energy is     2.2719 ev

!    total energy              =    -471.87980171 Ry
     total all-electron energy =     -3795.183491 Ry
     estimated scf accuracy    <          4.8E-10 Ry
     smearing contrib. (-TS)   =      -0.00369329 Ry
     internal energy E=F+TS    =    -471.87610842 Ry

     The total energy is F=E-TS. E is the sum of the following terms:
     one-electron contribution =   -3239.47747208 Ry
     hartree contribution      =    1625.91934356 Ry
     xc contribution           =     -58.26440722 Ry
     ewald contribution        =    1355.93225951 Ry
     one-center paw contrib.   =    -155.98583218 Ry

     convergence has been achieved in  15 iterations

     negative rho (up, down):  1.496E-03 0.000E+00

     Forces acting on atoms (cartesian axes, Ry/au):

     atom    1 type  1   force =     0.00531972   -0.00896165    0.00979971
     atom    2 type  1   force =     0.00652268    0.00611307   -0.00195972
     atom    3 type  2   force =    -0.00246458    0.00340892   -0.01638464
     atom    4 type  3   force =    -0.00492348    0.00382442   -0.00102652
     atom    5 type  3   force =     0.00343532   -0.00179463   -0.00787498
     atom    6 type  4   force =     0.00051978    0.00210425    0.00698181
     atom    7 type  4   force =    -0.00840943   -0.00469437    0.01046433

     Total force =     0.030777     Total SCF correction =     0.000097
     Energy error            =      1.1E-03 Ry
     Gradient error          =      1.6E-02 Ry/Bohr

     number of scf cycles    =  22
     number of bfgs steps    =  21

     energy             old  =    -471.8786948141 Ry
     energy             new  =    -471.8798017085 Ry

     CASE: energy            _new < energy            _old

     new trust radius        =       0.2019163717 bohr
     new conv_thr            =       0.0000000011 Ry


ATOMIC_POSITIONS (angstrom)
Ti              -0.3614122881        1.7933420068        3.1181338109
Ti               1.1725078626        0.8831241653        5.4376276058
C                2.7177202207        0.0197894484        4.3306357639
O                0.0699055353        1.9493034642        6.8409512788
O                1.1342594896        0.8857244154        1.8586846895
H                1.1971803992        0.8570256763        0.8770836411
H               -0.5108112192        1.5577508238        7.5103632100



     Writing config-only to output data dir ./tmp/ti2coh2.save/ :
     XML data file
     NEW-OLD atomic charge density approx. for the potential

     Check: negative core charge=   -0.000005

     negative rho (up, down):  1.468E-03 0.000E+00

     total cpu time spent up to now is      434.1 secs

     Self-consistent Calculation

     iteration #  1     ecut=    40.00 Ry     beta= 0.70
     Davidson diagonalization with overlap
     ethr =  1.00E-06,  avg # of iterations = 14.6

     negative rho (up, down):  1.458E-03 0.000E+00

     total cpu time spent up to now is      437.1 secs

     total energy              =    -471.87985500 Ry
     estimated scf accuracy    <       0.00445616 Ry

     iteration #  2     ecut=    40.00 Ry     beta= 0.70
     Davidson diagonalization with overlap
     ethr =  1.06E-05,  avg # of iterations =  2.4

     negative rho (up, down):  1.870E-03 0.000E+00

     total cpu time spent up to now is      438.0 secs

     total energy              =    -471.87857059 Ry
     estimated scf accuracy    <       0.00623138 Ry

     iteration #  3     ecut=    40.00 Ry     beta= 0.70
     Davidson diagonalization with overlap
     c_bands:  2 eigenvalues not converged
     c_bands:  1 eigenvalues not converged
     ethr =  1.06E-05,  avg # of iterations = 15.2

     negative rho (up, down):  1.920E-03 0.000E+00

     total cpu time spent up to now is      439.5 secs

     total energy              =    -471.87410592 Ry
     estimated scf accuracy    <       0.15277529 Ry

     iteration #  4     ecut=    40.00 Ry     beta= 0.70
     Davidson diagonalization with overlap
     ethr =  1.06E-05,  avg # of iterations = 11.9

     negative rho (up, down):  2.020E-03 0.000E+00

     total cpu time spent up to now is      440.8 secs

     total energy              =    -471.88065281 Ry
     estimated scf accuracy    <       0.00377397 Ry

     iteration #  5     ecut=    40.00 Ry     beta= 0.70
     Davidson diagonalization with overlap
     ethr =  8.99E-06,  avg # of iterations =  2.1

     negative rho (up, down):  1.636E-03 0.000E+00

     total cpu time spent up to now is      441.6 secs

     total energy              =    -471.88115688 Ry
     estimated scf accuracy    <       0.00071253 Ry

     iteration #  6     ecut=    40.00 Ry     beta= 0.70
     Davidson diagonalization with overlap
     ethr =  1.70E-06,  avg # of iterations =  9.4

     negative rho (up, down):  1.442E-03 0.000E+00

     total cpu time spent up to now is      442.8 secs

     total energy              =    -471.88129640 Ry
     estimated scf accuracy    <       0.00012626 Ry

     iteration #  7     ecut=    40.00 Ry     beta= 0.70
     Davidson diagonalization with overlap
     ethr =  3.01E-07,  avg # of iterations =  3.0

     negative rho (up, down):  1.428E-03 0.000E+00

     total cpu time spent up to now is      443.7 secs

     total energy              =    -471.88131218 Ry
     estimated scf accuracy    <       0.00002164 Ry

     iteration #  8     ecut=    40.00 Ry     beta= 0.70
     Davidson diagonalization with overlap
     ethr =  5.15E-08,  avg # of iterations =  5.4

     negative rho (up, down):  1.430E-03 0.000E+00

     total cpu time spent up to now is      444.7 secs

     total energy              =    -471.88131798 Ry
     estimated scf accuracy    <       0.00000289 Ry

     iteration #  9     ecut=    40.00 Ry     beta= 0.70
     Davidson diagonalization with overlap
     ethr =  6.89E-09,  avg # of iterations =  5.6

     negative rho (up, down):  1.433E-03 0.000E+00

     total cpu time spent up to now is      445.8 secs

     total energy              =    -471.88131854 Ry
     estimated scf accuracy    <       0.00000062 Ry

     iteration # 10     ecut=    40.00 Ry     beta= 0.70
     Davidson diagonalization with overlap
     ethr =  1.48E-09,  avg # of iterations =  5.6

     negative rho (up, down):  1.433E-03 0.000E+00

     total cpu time spent up to now is      446.9 secs

     total energy              =    -471.88131877 Ry
     estimated scf accuracy    <       0.00000050 Ry

     iteration # 11     ecut=    40.00 Ry     beta= 0.70
     Davidson diagonalization with overlap
     ethr =  1.18E-09,  avg # of iterations =  2.0

     negative rho (up, down):  1.434E-03 0.000E+00

     total cpu time spent up to now is      447.7 secs

     total energy              =    -471.88131875 Ry
     estimated scf accuracy    <       0.00000010 Ry

     iteration # 12     ecut=    40.00 Ry     beta= 0.70
     Davidson diagonalization with overlap
     ethr =  2.45E-10,  avg # of iterations =  5.8

     negative rho (up, down):  1.434E-03 0.000E+00

     total cpu time spent up to now is      448.9 secs

     total energy              =    -471.88131884 Ry
     estimated scf accuracy    <       0.00000012 Ry

     iteration # 13     ecut=    40.00 Ry     beta= 0.70
     Davidson diagonalization with overlap
     ethr =  2.45E-10,  avg # of iterations =  1.0

     negative rho (up, down):  1.434E-03 0.000E+00

     total cpu time spent up to now is      449.7 secs

     total energy              =    -471.88131881 Ry
     estimated scf accuracy    <       0.00000008 Ry

     iteration # 14     ecut=    40.00 Ry     beta= 0.70
     Davidson diagonalization with overlap
     ethr =  2.02E-10,  avg # of iterations =  3.4

     negative rho (up, down):  1.434E-03 0.000E+00

     total cpu time spent up to now is      450.6 secs

     total energy              =    -471.88131882 Ry
     estimated scf accuracy    <       0.00000001 Ry

     iteration # 15     ecut=    40.00 Ry     beta= 0.70
     Davidson diagonalization with overlap
     ethr =  2.46E-11,  avg # of iterations =  6.1

     negative rho (up, down):  1.434E-03 0.000E+00

     total cpu time spent up to now is      451.8 secs

     total energy              =    -471.88131882 Ry
     estimated scf accuracy    <          6.3E-09 Ry

     iteration # 16     ecut=    40.00 Ry     beta= 0.70
     Davidson diagonalization with overlap
     ethr =  1.51E-11,  avg # of iterations =  1.6

     negative rho (up, down):  1.434E-03 0.000E+00

     total cpu time spent up to now is      452.6 secs

     total energy              =    -471.88131882 Ry
     estimated scf accuracy    <          2.4E-09 Ry

     iteration # 17     ecut=    40.00 Ry     beta= 0.70
     Davidson diagonalization with overlap
     ethr =  5.60E-12,  avg # of iterations =  5.0

     negative rho (up, down):  1.434E-03 0.000E+00

     total cpu time spent up to now is      453.7 secs

     End of self-consistent calculation

          k = 0.0000 0.0000 0.0000 (  5509 PWs)   bands (ev):

   -55.4070 -55.3013 -31.9015 -31.5408 -31.5165 -31.4572 -31.3977 -31.3765
   -19.6539 -19.4120  -9.8850  -7.5457  -6.4120  -3.0113  -2.9880  -2.8430
    -2.5486  -1.6075  -0.4113  -0.2092   1.9946   2.2499   2.3099   2.4025
     3.1244

          k = 0.0000 0.2887 0.0000 (  5504 PWs)   bands (ev):

   -55.3760 -55.2800 -31.8386 -31.7362 -31.5963 -31.5264 -31.4923 -31.4167
   -19.4697 -19.2012  -9.1573  -7.3467  -6.6800  -3.9228  -3.3969  -2.9712
    -2.8001  -1.7947  -1.3691  -0.6027   1.1896   2.8562   3.0183   3.3035
     3.6822

          k = 0.0000-0.5773 0.0000 (  5552 PWs)   bands (ev):

   -55.3441 -55.2592 -31.9560 -31.8557 -31.6317 -31.5739 -31.5373 -31.4531
   -19.2898 -18.9877  -8.3715  -7.1728  -6.8693  -4.9173  -4.1629  -3.1221
    -2.8946  -2.4456  -1.2258  -0.6960   0.4279   3.7737   4.1669   4.4178
     4.5749

          k = 0.2500 0.1443 0.0000 (  5504 PWs)   bands (ev):

   -55.3764 -55.2804 -31.8408 -31.6987 -31.5712 -31.5587 -31.4948 -31.4330
   -19.4688 -19.1780  -9.2072  -7.3880  -6.7360  -3.8894  -3.4678  -3.0539
    -2.7730  -1.8274  -1.3433  -0.3940   1.2010   2.7975   3.0971   3.1647
     3.7122

          k = 0.2500 0.4330 0.0000 (  5528 PWs)   bands (ev):

   -55.3446 -55.2596 -31.8516 -31.7894 -31.7013 -31.6006 -31.5639 -31.4986
   -19.2871 -18.9592  -8.3917  -7.2178  -7.0312  -4.4399  -3.7717  -3.4988
    -3.2251  -2.3153  -1.6258  -1.2348   2.2831   2.4824   3.7707   4.1327
     4.3537

          k = 0.2500-0.4330 0.0000 (  5528 PWs)   bands (ev):

   -55.3445 -55.2588 -31.8897 -31.8064 -31.6974 -31.5762 -31.5493 -31.4955
   -19.2879 -18.9952  -8.3534  -7.2210  -6.7322  -4.4420  -4.0290  -3.5135
    -3.1981  -2.1250  -1.6404  -1.3022   2.2169   2.3617   3.7253   4.0842
     4.2116

          k = 0.2500-0.1443 0.0000 (  5504 PWs)   bands (ev):

   -55.3762 -55.2796 -31.8389 -31.7369 -31.5966 -31.5272 -31.4934 -31.4147
   -19.4691 -19.2068  -9.1560  -7.3558  -6.6345  -3.9217  -3.4016  -2.9821
    -2.8044  -1.7516  -1.3977  -0.5911   1.1826   2.8498   3.0428   3.3202
     3.6545

          k =-0.5000-0.2887 0.0000 (  5552 PWs)   bands (ev):

   -55.3450 -55.2601 -31.9165 -31.8188 -31.6388 -31.6209 -31.5263 -31.4689
   -19.2872 -18.9329  -8.4865  -7.3772  -7.0532  -4.8177  -3.8127  -3.2283
    -2.9809  -2.6271  -1.1385  -0.3982   0.3900   3.6592   4.1964   4.4360
     4.5656

          k =-0.5000-0.0000 0.0000 (  5528 PWs)   bands (ev):

   -55.3449 -55.2592 -31.8513 -31.7879 -31.7070 -31.6089 -31.5563 -31.4949
   -19.2863 -18.9658  -8.3957  -7.2232  -6.9731  -4.4452  -3.8163  -3.5046
    -3.2306  -2.2380  -1.6426  -1.2391   2.2654   2.4954   3.7382   4.1807
     4.2972

          k =-0.5000-0.8660 0.0000 (  5552 PWs)   bands (ev):

   -55.3448 -55.2584 -31.9558 -31.8576 -31.6404 -31.5766 -31.5279 -31.4516
   -19.2885 -19.0004  -8.3719  -7.1891  -6.7382  -4.9555  -4.2347  -3.1327
    -2.8478  -2.4111  -1.2442  -0.6450   0.3940   3.7413   4.1897   4.4133
     4.5595

     the Fermi energy is     2.3275 ev

!    total energy              =    -471.88131882 Ry
     total all-electron energy =     -3795.185008 Ry
     estimated scf accuracy    <          9.4E-10 Ry
     smearing contrib. (-TS)   =      -0.00467947 Ry
     internal energy E=F+TS    =    -471.87663936 Ry

     The total energy is F=E-TS. E is the sum of the following terms:
     one-electron contribution =   -3245.08001084 Ry
     hartree contribution      =    1628.73490554 Ry
     xc contribution           =     -58.26134656 Ry
     ewald contribution        =    1358.71527247 Ry
     one-center paw contrib.   =    -155.98545996 Ry

     convergence has been achieved in  17 iterations

     negative rho (up, down):  1.434E-03 0.000E+00

     Forces acting on atoms (cartesian axes, Ry/au):

     atom    1 type  1   force =     0.01060777   -0.00672030    0.01108265
     atom    2 type  1   force =     0.00736980   -0.00086883   -0.00154574
     atom    3 type  2   force =    -0.00433069    0.00244511   -0.02135877
     atom    4 type  3   force =    -0.01158177    0.00330310    0.00072573
     atom    5 type  3   force =     0.00553156    0.00263020   -0.01269143
     atom    6 type  4   force =    -0.00305457    0.00094240    0.01341534
     atom    7 type  4   force =    -0.00454209   -0.00173168    0.01037221

     Total force =     0.038529     Total SCF correction =     0.000061
     Energy error            =      1.5E-03 Ry
     Gradient error          =      2.1E-02 Ry/Bohr

     number of scf cycles    =  23
     number of bfgs steps    =  22

     energy             old  =    -471.8798017085 Ry
     energy             new  =    -471.8813188231 Ry

     CASE: energy            _new < energy            _old

     new trust radius        =       0.1327335764 bohr
     new conv_thr            =       0.0000000015 Ry


ATOMIC_POSITIONS (angstrom)
Ti              -0.3591270806        1.7859677940        3.1261620567
Ti               1.1893630768        0.9236068548        5.4406668393
C                2.7232177259        0.0372074161        4.3282767389
O                0.0100263773        1.9262532081        6.8251456632
O                1.1411023459        0.8784878502        1.8603256573
H                1.2591724539        0.8878546486        0.8889225069
H               -0.5444048993        1.5066822281        7.5039805377



     Writing config-only to output data dir ./tmp/ti2coh2.save/ :
     XML data file
     NEW-OLD atomic charge density approx. for the potential

     Check: negative core charge=   -0.000005

     negative rho (up, down):  1.463E-03 0.000E+00

     total cpu time spent up to now is      454.3 secs

     Self-consistent Calculation

     iteration #  1     ecut=    40.00 Ry     beta= 0.70
     Davidson diagonalization with overlap
     ethr =  1.00E-06,  avg # of iterations = 14.0

     negative rho (up, down):  1.454E-03 0.000E+00

     total cpu time spent up to now is      457.2 secs

     total energy              =    -471.88167525 Ry
     estimated scf accuracy    <       0.00305484 Ry

     iteration #  2     ecut=    40.00 Ry     beta= 0.70
     Davidson diagonalization with overlap
     ethr =  7.27E-06,  avg # of iterations =  7.0

     negative rho (up, down):  2.230E-03 0.000E+00

     total cpu time spent up to now is      458.4 secs

     total energy              =    -471.87883222 Ry
     estimated scf accuracy    <       0.02492839 Ry

     iteration #  3     ecut=    40.00 Ry     beta= 0.70
     Davidson diagonalization with overlap
     ethr =  7.27E-06,  avg # of iterations = 10.6

     negative rho (up, down):  1.813E-03 0.000E+00

     total cpu time spent up to now is      459.8 secs

     total energy              =    -471.88065380 Ry
     estimated scf accuracy    <       0.04432479 Ry

     iteration #  4     ecut=    40.00 Ry     beta= 0.70
     Davidson diagonalization with overlap
     ethr =  7.27E-06,  avg # of iterations =  6.8

     negative rho (up, down):  1.957E-03 0.000E+00

     total cpu time spent up to now is      460.8 secs

     total energy              =    -471.88202140 Ry
     estimated scf accuracy    <       0.00605224 Ry

     iteration #  5     ecut=    40.00 Ry     beta= 0.70
     Davidson diagonalization with overlap
     ethr =  7.27E-06,  avg # of iterations =  3.1

     negative rho (up, down):  1.677E-03 0.000E+00

     total cpu time spent up to now is      464.0 secs

     total energy              =    -471.88270695 Ry
     estimated scf accuracy    <       0.00053871 Ry

     iteration #  6     ecut=    40.00 Ry     beta= 0.70
     Davidson diagonalization with overlap
     c_bands:  1 eigenvalues not converged
     ethr =  1.28E-06,  avg # of iterations =  8.7

     negative rho (up, down):  1.440E-03 0.000E+00

     total cpu time spent up to now is      465.1 secs

     total energy              =    -471.88286735 Ry
     estimated scf accuracy    <       0.00008378 Ry

     iteration #  7     ecut=    40.00 Ry     beta= 0.70
     Davidson diagonalization with overlap
     ethr =  1.99E-07,  avg # of iterations =  4.3

     negative rho (up, down):  1.409E-03 0.000E+00

     total cpu time spent up to now is      466.0 secs

     total energy              =    -471.88288444 Ry
     estimated scf accuracy    <       0.00004350 Ry

     iteration #  8     ecut=    40.00 Ry     beta= 0.70
     Davidson diagonalization with overlap
     ethr =  1.04E-07,  avg # of iterations =  1.9

     negative rho (up, down):  1.409E-03 0.000E+00

     total cpu time spent up to now is      466.9 secs

     total energy              =    -471.88288692 Ry
     estimated scf accuracy    <       0.00000603 Ry

     iteration #  9     ecut=    40.00 Ry     beta= 0.70
     Davidson diagonalization with overlap
     ethr =  1.44E-08,  avg # of iterations =  5.6

     negative rho (up, down):  1.410E-03 0.000E+00

     total cpu time spent up to now is      467.9 secs

     total energy              =    -471.88288843 Ry
     estimated scf accuracy    <       0.00000069 Ry

     iteration # 10     ecut=    40.00 Ry     beta= 0.70
     Davidson diagonalization with overlap
     ethr =  1.65E-09,  avg # of iterations =  5.3

     negative rho (up, down):  1.410E-03 0.000E+00

     total cpu time spent up to now is      469.0 secs

     total energy              =    -471.88288860 Ry
     estimated scf accuracy    <       0.00000035 Ry

     iteration # 11     ecut=    40.00 Ry     beta= 0.70
     Davidson diagonalization with overlap
     ethr =  8.36E-10,  avg # of iterations =  1.5

     negative rho (up, down):  1.410E-03 0.000E+00

     total cpu time spent up to now is      469.8 secs

     total energy              =    -471.88288861 Ry
     estimated scf accuracy    <       0.00000007 Ry

     iteration # 12     ecut=    40.00 Ry     beta= 0.70
     Davidson diagonalization with overlap
     ethr =  1.74E-10,  avg # of iterations =  4.2

     negative rho (up, down):  1.410E-03 0.000E+00

     total cpu time spent up to now is      470.8 secs

     total energy              =    -471.88288862 Ry
     estimated scf accuracy    <          1.9E-09 Ry

     iteration # 13     ecut=    40.00 Ry     beta= 0.70
     Davidson diagonalization with overlap
     ethr =  4.62E-12,  avg # of iterations = 11.3

     negative rho (up, down):  1.410E-03 0.000E+00

     total cpu time spent up to now is      472.2 secs

     total energy              =    -471.88288863 Ry
     estimated scf accuracy    <          5.4E-09 Ry

     iteration # 14     ecut=    40.00 Ry     beta= 0.70
     Davidson diagonalization with overlap
     ethr =  4.62E-12,  avg # of iterations =  1.8

     negative rho (up, down):  1.410E-03 0.000E+00

     total cpu time spent up to now is      473.1 secs

     End of self-consistent calculation

          k = 0.0000 0.0000 0.0000 (  5509 PWs)   bands (ev):

   -55.3561 -55.2694 -31.8620 -31.4973 -31.4488 -31.4197 -31.3688 -31.3469
   -19.6124 -19.4634  -9.8531  -7.5072  -6.4475  -3.0487  -2.9475  -2.7773
    -2.5665  -1.5995  -0.3444  -0.1386   2.0658   2.2633   2.3330   2.4636
     3.0423

          k = 0.0000 0.2887 0.0000 (  5504 PWs)   bands (ev):

   -55.3239 -55.2492 -31.7973 -31.6745 -31.5528 -31.4919 -31.4505 -31.3939
   -19.4278 -19.2518  -9.1224  -7.2966  -6.7707  -3.8796  -3.4272  -2.9085
    -2.8172  -1.7366  -1.3270  -0.5342   1.2302   2.9228   3.0792   3.3319
     3.6843

          k = 0.0000-0.5773 0.0000 (  5552 PWs)   bands (ev):

   -55.2903 -55.2302 -31.8965 -31.8048 -31.6060 -31.5455 -31.4816 -31.4282
   -19.2477 -19.0370  -8.3427  -7.1216  -6.9828  -4.8864  -4.1853  -3.0621
    -2.9126  -2.3613  -1.1578  -0.6038   0.4450   3.7348   4.2267   4.4859
     4.6609

          k = 0.2500 0.1443 0.0000 (  5504 PWs)   bands (ev):

   -55.3238 -55.2502 -31.8015 -31.6634 -31.5334 -31.5008 -31.4564 -31.3948
   -19.4268 -19.2324  -9.1797  -7.3447  -6.7712  -3.8415  -3.4997  -2.9823
    -2.7771  -1.8050  -1.3626  -0.3917   1.1982   2.9124   3.1374   3.2516
     3.7767

          k = 0.2500 0.4330 0.0000 (  5528 PWs)   bands (ev):

   -55.2900 -55.2313 -31.8014 -31.7483 -31.6608 -31.5593 -31.5292 -31.4604
   -19.2449 -19.0129  -8.3609  -7.1685  -7.1118  -4.3648  -3.8118  -3.4258
    -3.2467  -2.3030  -1.5953  -1.2102   2.3695   2.4740   3.8262   4.2113
     4.3762

          k = 0.2500-0.4330 0.0000 (  5528 PWs)   bands (ev):

   -55.2902 -55.2302 -31.8270 -31.7656 -31.6592 -31.5420 -31.5267 -31.4478
   -19.2455 -19.0485  -8.3279  -7.1696  -6.8029  -4.3738  -4.0825  -3.4724
    -3.2263  -2.0469  -1.6198  -1.2677   2.3099   2.4130   3.8152   4.0999
     4.2443

          k = 0.2500-0.1443 0.0000 (  5504 PWs)   bands (ev):

   -55.3239 -55.2492 -31.7990 -31.6858 -31.5621 -31.4787 -31.4565 -31.3783
   -19.4270 -19.2614  -9.1208  -7.3026  -6.6909  -3.8741  -3.4261  -2.9200
    -2.8334  -1.7321  -1.3679  -0.5630   1.2108   2.9320   3.1167   3.3587
     3.6819

          k =-0.5000-0.2887 0.0000 (  5552 PWs)   bands (ev):

   -55.2898 -55.2324 -31.8805 -31.7968 -31.5871 -31.5532 -31.4966 -31.4288
   -19.2449 -18.9912  -8.4653  -7.3968  -7.0125  -4.7190  -3.8647  -3.1653
    -2.9684  -2.6642  -1.1798  -0.4193   0.3843   3.7619   4.2198   4.5350
     4.6235

          k =-0.5000-0.0000 0.0000 (  5528 PWs)   bands (ev):

   -55.2900 -55.2313 -31.8129 -31.7586 -31.6592 -31.5535 -31.5081 -31.4668
   -19.2438 -19.0241  -8.3556  -7.1768  -7.0132  -4.3637  -3.8848  -3.4343
    -3.2612  -2.2642  -1.6149  -1.2198   2.3180   2.4790   3.8226   4.2578
     4.3200

          k =-0.5000-0.8660 0.0000 (  5552 PWs)   bands (ev):

   -55.2901 -55.2302 -31.9047 -31.8269 -31.5934 -31.5336 -31.4916 -31.4120
   -19.2458 -19.0585  -8.3388  -7.1406  -6.7548  -4.9261  -4.2951  -3.0730
    -2.8778  -2.3734  -1.2182  -0.6097   0.4086   3.7535   4.2258   4.4932
     4.6777

     the Fermi energy is     2.3767 ev

!    total energy              =    -471.88288863 Ry
     total all-electron energy =     -3795.186578 Ry
     estimated scf accuracy    <          1.1E-09 Ry
     smearing contrib. (-TS)   =      -0.00522638 Ry
     internal energy E=F+TS    =    -471.87766224 Ry

     The total energy is F=E-TS. E is the sum of the following terms:
     one-electron contribution =   -3251.20625591 Ry
     hartree contribution      =    1631.84029496 Ry
     xc contribution           =     -58.26697840 Ry
     ewald contribution        =    1361.74038104 Ry
     one-center paw contrib.   =    -155.98510393 Ry

     convergence has been achieved in  14 iterations

     negative rho (up, down):  1.410E-03 0.000E+00

     Forces acting on atoms (cartesian axes, Ry/au):

     atom    1 type  1   force =     0.01213374   -0.00044347    0.00711771
     atom    2 type  1   force =     0.00665534   -0.00748131   -0.00016265
     atom    3 type  2   force =    -0.00370784    0.00059043   -0.01910517
     atom    4 type  3   force =    -0.01669637    0.00098678    0.00137505
     atom    5 type  3   force =     0.00564960    0.00497159   -0.00280630
     atom    6 type  4   force =    -0.00402649   -0.00004044    0.00490609
     atom    7 type  4   force =    -0.00000798    0.00141642    0.00867526

     Total force =     0.033781     Total SCF correction =     0.000189
     Energy error            =      1.6E-03 Ry
     Gradient error          =      1.9E-02 Ry/Bohr

     number of scf cycles    =  24
     number of bfgs steps    =  23

     energy             old  =    -471.8813188231 Ry
     energy             new  =    -471.8828886265 Ry

     CASE: energy            _new < energy            _old

     new trust radius        =       0.1460069341 bohr
     new conv_thr            =       0.0000000016 Ry


ATOMIC_POSITIONS (angstrom)
Ti              -0.3538171307        1.7835046349        3.1365209144
Ti               1.2055140829        0.9518284397        5.4409364282
C                2.7258848578        0.0517981310        4.3201375414
O               -0.0548901053        1.8964698573        6.8049058745
O                1.1457918818        0.8912251863        1.8702277936
H                1.3288285826        0.9182875694        0.9027614381
H               -0.5779621691        1.4529461814        7.4979900098



     Writing config-only to output data dir ./tmp/ti2coh2.save/ :
     XML data file
     NEW-OLD atomic charge density approx. for the potential

     Check: negative core charge=   -0.000005

     negative rho (up, down):  1.435E-03 0.000E+00

     total cpu time spent up to now is      473.7 secs

     Self-consistent Calculation

     iteration #  1     ecut=    40.00 Ry     beta= 0.70
     Davidson diagonalization with overlap
     c_bands:  1 eigenvalues not converged
     c_bands:  1 eigenvalues not converged
     ethr =  1.00E-06,  avg # of iterations = 14.6

     negative rho (up, down):  1.441E-03 0.000E+00

     total cpu time spent up to now is      476.5 secs

     total energy              =    -471.88299452 Ry
     estimated scf accuracy    <       0.00346141 Ry

     iteration #  2     ecut=    40.00 Ry     beta= 0.70
     Davidson diagonalization with overlap
     ethr =  8.24E-06,  avg # of iterations =  9.7

     negative rho (up, down):  1.877E-03 0.000E+00

     total cpu time spent up to now is      477.8 secs

     total energy              =    -471.87943012 Ry
     estimated scf accuracy    <       0.03375101 Ry

     iteration #  3     ecut=    40.00 Ry     beta= 0.70
     Davidson diagonalization with overlap
     c_bands:  3 eigenvalues not converged
     c_bands:  1 eigenvalues not converged
     c_bands:  2 eigenvalues not converged
     ethr =  8.24E-06,  avg # of iterations = 14.4

     negative rho (up, down):  1.823E-03 0.000E+00

     total cpu time spent up to now is      479.2 secs

     total energy              =    -471.88106961 Ry
     estimated scf accuracy    <       0.03979041 Ry

     iteration #  4     ecut=    40.00 Ry     beta= 0.70
     Davidson diagonalization with overlap
     ethr =  8.24E-06,  avg # of iterations =  8.9

     negative rho (up, down):  1.480E-03 0.000E+00

     total cpu time spent up to now is      480.4 secs

     total energy              =    -471.88323605 Ry
     estimated scf accuracy    <       0.01265431 Ry

     iteration #  5     ecut=    40.00 Ry     beta= 0.70
     Davidson diagonalization with overlap
     ethr =  8.24E-06,  avg # of iterations =  3.7

     negative rho (up, down):  1.436E-03 0.000E+00

     total cpu time spent up to now is      481.3 secs

     total energy              =    -471.88403695 Ry
     estimated scf accuracy    <       0.00022235 Ry

     iteration #  6     ecut=    40.00 Ry     beta= 0.70
     Davidson diagonalization with overlap
     ethr =  5.29E-07,  avg # of iterations =  7.5

     negative rho (up, down):  1.383E-03 0.000E+00

     total cpu time spent up to now is      482.5 secs

     total energy              =    -471.88413162 Ry
     estimated scf accuracy    <       0.00008323 Ry

     iteration #  7     ecut=    40.00 Ry     beta= 0.70
     Davidson diagonalization with overlap
     ethr =  1.98E-07,  avg # of iterations =  2.2

     negative rho (up, down):  1.379E-03 0.000E+00

     total cpu time spent up to now is      483.4 secs

     total energy              =    -471.88414621 Ry
     estimated scf accuracy    <       0.00001014 Ry

     iteration #  8     ecut=    40.00 Ry     beta= 0.70
     Davidson diagonalization with overlap
     ethr =  2.41E-08,  avg # of iterations =  6.6

     negative rho (up, down):  1.381E-03 0.000E+00

     total cpu time spent up to now is      484.5 secs

     total energy              =    -471.88414913 Ry
     estimated scf accuracy    <       0.00000181 Ry

     iteration #  9     ecut=    40.00 Ry     beta= 0.70
     Davidson diagonalization with overlap
     ethr =  4.30E-09,  avg # of iterations =  6.8

     negative rho (up, down):  1.380E-03 0.000E+00

     total cpu time spent up to now is      485.5 secs

     total energy              =    -471.88414942 Ry
     estimated scf accuracy    <       0.00000055 Ry

     iteration # 10     ecut=    40.00 Ry     beta= 0.70
     Davidson diagonalization with overlap
     ethr =  1.30E-09,  avg # of iterations =  4.9

     negative rho (up, down):  1.381E-03 0.000E+00

     total cpu time spent up to now is      486.6 secs

     total energy              =    -471.88414958 Ry
     estimated scf accuracy    <       0.00000038 Ry

     iteration # 11     ecut=    40.00 Ry     beta= 0.70
     Davidson diagonalization with overlap
     ethr =  9.06E-10,  avg # of iterations =  2.1

     negative rho (up, down):  1.380E-03 0.000E+00

     total cpu time spent up to now is      487.6 secs

     total energy              =    -471.88414960 Ry
     estimated scf accuracy    <       0.00000005 Ry

     iteration # 12     ecut=    40.00 Ry     beta= 0.70
     Davidson diagonalization with overlap
     ethr =  1.20E-10,  avg # of iterations =  6.6

     negative rho (up, down):  1.380E-03 0.000E+00

     total cpu time spent up to now is      488.8 secs

     total energy              =    -471.88414964 Ry
     estimated scf accuracy    <       0.00000004 Ry

     iteration # 13     ecut=    40.00 Ry     beta= 0.70
     Davidson diagonalization with overlap
     ethr =  9.39E-11,  avg # of iterations =  1.7

     negative rho (up, down):  1.380E-03 0.000E+00

     total cpu time spent up to now is      489.6 secs

     total energy              =    -471.88414963 Ry
     estimated scf accuracy    <       0.00000003 Ry

     iteration # 14     ecut=    40.00 Ry     beta= 0.70
     Davidson diagonalization with overlap
     ethr =  6.88E-11,  avg # of iterations =  2.0

     negative rho (up, down):  1.380E-03 0.000E+00

     total cpu time spent up to now is      490.5 secs

     total energy              =    -471.88414963 Ry
     estimated scf accuracy    <          6.3E-09 Ry

     iteration # 15     ecut=    40.00 Ry     beta= 0.70
     Davidson diagonalization with overlap
     ethr =  1.50E-11,  avg # of iterations =  5.8

     negative rho (up, down):  1.380E-03 0.000E+00

     total cpu time spent up to now is      491.5 secs

     End of self-consistent calculation

          k = 0.0000 0.0000 0.0000 (  5509 PWs)   bands (ev):

   -55.3065 -55.2293 -31.8244 -31.4531 -31.3994 -31.3645 -31.3326 -31.3054
   -19.5282 -19.4990  -9.8173  -7.4498  -6.4636  -3.1127  -2.9153  -2.7325
    -2.5595  -1.6160  -0.2615  -0.0764   2.1178   2.2768   2.3579   2.5305
     2.9559

          k = 0.0000 0.2887 0.0000 (  5504 PWs)   bands (ev):

   -55.2731 -55.2102 -31.7588 -31.6192 -31.5013 -31.4574 -31.4022 -31.3588
   -19.3358 -19.2925  -9.0881  -7.2155  -6.8453  -3.8618  -3.4394  -2.8963
    -2.8226  -1.6806  -1.2793  -0.4796   1.2747   2.9639   3.1531   3.3486
     3.7062

          k = 0.0000-0.5773 0.0000 (  5552 PWs)   bands (ev):

   -55.2371 -55.1935 -31.8445 -31.7507 -31.5736 -31.5130 -31.4285 -31.3903
   -19.1535 -19.0771  -8.3171  -7.0774  -7.0362  -4.8623  -4.2055  -3.0534
    -2.9206  -2.2838  -1.0821  -0.5212   0.4657   3.7323   4.2794   4.5481
     4.6727

          k = 0.2500 0.1443 0.0000 (  5504 PWs)   bands (ev):

   -55.2723 -55.2117 -31.7637 -31.6301 -31.5019 -31.4388 -31.4080 -31.3452
   -19.3345 -19.2773  -9.1488  -7.2815  -6.7902  -3.8210  -3.5154  -2.9324
    -2.7611  -1.7708  -1.3849  -0.3987   1.1985   3.0134   3.1831   3.3250
     3.8340

          k = 0.2500 0.4330 0.0000 (  5528 PWs)   bands (ev):

   -55.2358 -55.1955 -31.7589 -31.7095 -31.6178 -31.5111 -31.4880 -31.4124
   -19.1505 -19.0580  -8.3309  -7.1794  -7.0829  -4.3032  -3.8602  -3.3681
    -3.2583  -2.2874  -1.5670  -1.1756   2.4215   2.4919   3.8896   4.2741
     4.4065

          k = 0.2500-0.4330 0.0000 (  5528 PWs)   bands (ev):

   -55.2364 -55.1940 -31.7701 -31.7210 -31.6180 -31.5055 -31.4973 -31.3946
   -19.1511 -19.0919  -8.3042  -7.0875  -6.8644  -4.3158  -4.1314  -3.4542
    -3.2324  -1.9880  -1.6057  -1.2137   2.3829   2.4751   3.9085   4.1458
     4.2867

          k = 0.2500-0.1443 0.0000 (  5504 PWs)   bands (ev):

   -55.2726 -55.2106 -31.7605 -31.6389 -31.5186 -31.4345 -31.4103 -31.3347
   -19.3349 -19.3053  -9.0838  -7.2235  -6.7398  -3.8501  -3.4393  -2.8919
    -2.8339  -1.7003  -1.3356  -0.5402   1.2369   2.9682   3.2054   3.3809
     3.7131

          k =-0.5000-0.2887 0.0000 (  5552 PWs)   bands (ev):

   -55.2343 -55.1977 -31.8465 -31.7734 -31.5348 -31.4889 -31.4610 -31.3772
   -19.1503 -19.0413  -8.4387  -7.3990  -6.9539  -4.6262  -3.9219  -3.1162
    -2.9429  -2.6768  -1.2088  -0.4382   0.3786   3.8654   4.2463   4.6153
     4.6828

          k =-0.5000-0.0000 0.0000 (  5528 PWs)   bands (ev):

   -55.2351 -55.1961 -31.7773 -31.7266 -31.6143 -31.4908 -31.4588 -31.4297
   -19.1493 -19.0732  -8.3175  -7.1071  -7.0376  -4.2919  -3.9493  -3.3746
    -3.2778  -2.2654  -1.5928  -1.1942   2.3640   2.4701   3.9064   4.3156
     4.3364

          k =-0.5000-0.8660 0.0000 (  5552 PWs)   bands (ev):

   -55.2357 -55.1946 -31.8579 -31.7883 -31.5492 -31.4884 -31.4507 -31.3659
   -19.1514 -19.1060  -8.3069  -7.0692  -6.7639  -4.9215  -4.3300  -3.0277
    -2.8929  -2.3225  -1.1814  -0.5696   0.4205   3.7859   4.2638   4.5571
     4.6869

     the Fermi energy is     2.4182 ev

!    total energy              =    -471.88414964 Ry
     total all-electron energy =     -3795.187839 Ry
     estimated scf accuracy    <          1.6E-10 Ry
     smearing contrib. (-TS)   =      -0.00535597 Ry
     internal energy E=F+TS    =    -471.87879367 Ry

     The total energy is F=E-TS. E is the sum of the following terms:
     one-electron contribution =   -3261.55319793 Ry
     hartree contribution      =    1637.06070678 Ry
     xc contribution           =     -58.26850632 Ry
     ewald contribution        =    1366.86734991 Ry
     one-center paw contrib.   =    -155.98514611 Ry

     convergence has been achieved in  15 iterations

     negative rho (up, down):  1.380E-03 0.000E+00

     Forces acting on atoms (cartesian axes, Ry/au):

     atom    1 type  1   force =     0.01014725    0.00663899    0.00163087
     atom    2 type  1   force =     0.00421571   -0.01061738    0.00153721
     atom    3 type  2   force =    -0.00099567   -0.00253175   -0.01300926
     atom    4 type  3   force =    -0.02008605   -0.00177760    0.00267764
     atom    5 type  3   force =     0.00985542    0.00384262   -0.01481488
     atom    6 type  4   force =    -0.00787389   -0.00049871    0.01547467
     atom    7 type  4   force =     0.00473723    0.00494383    0.00650374

     Total force =     0.039941     Total SCF correction =     0.000064
     Energy error            =      1.3E-03 Ry
     Gradient error          =      2.0E-02 Ry/Bohr

     number of scf cycles    =  25
     number of bfgs steps    =  24

     energy             old  =    -471.8828886265 Ry
     energy             new  =    -471.8841496358 Ry

     CASE: energy            _new < energy            _old

     new trust radius        =       0.1670781999 bohr
     new conv_thr            =       0.0000000013 Ry


ATOMIC_POSITIONS (angstrom)
Ti              -0.3324526354        1.7647326037        3.1522403796
Ti               1.2306382754        0.9827619313        5.4374119076
C                2.7272747671        0.0621258446        4.2828569728
O               -0.1370173661        1.8788171659        6.7773282270
O                1.1637197774        0.8979514510        1.8715412030
H                1.3665607254        0.9392222349        0.9414784481
H               -0.5993735438        1.4204487686        7.5106228620



     Writing config-only to output data dir ./tmp/ti2coh2.save/ :
     XML data file
     NEW-OLD atomic charge density approx. for the potential

     Check: negative core charge=   -0.000005

     negative rho (up, down):  1.397E-03 0.000E+00

     total cpu time spent up to now is      492.1 secs

     Self-consistent Calculation

     iteration #  1     ecut=    40.00 Ry     beta= 0.70
     Davidson diagonalization with overlap
     c_bands:  1 eigenvalues not converged
     ethr =  1.00E-06,  avg # of iterations = 15.4

     negative rho (up, down):  1.420E-03 0.000E+00

     total cpu time spent up to now is      495.3 secs

     total energy              =    -471.87877674 Ry
     estimated scf accuracy    <       0.01014003 Ry

     iteration #  2     ecut=    40.00 Ry     beta= 0.70
     Davidson diagonalization with overlap
     c_bands:  1 eigenvalues not converged
     c_bands:  1 eigenvalues not converged
     ethr =  2.41E-05,  avg # of iterations = 15.4

     negative rho (up, down):  2.308E-03 0.000E+00

     total cpu time spent up to now is      499.3 secs

     total energy              =    -471.84856024 Ry
     estimated scf accuracy    <       0.61293628 Ry

     iteration #  3     ecut=    40.00 Ry     beta= 0.70
     Davidson diagonalization with overlap
     c_bands:  1 eigenvalues not converged
     ethr =  2.41E-05,  avg # of iterations = 16.6

     negative rho (up, down):  2.023E-03 0.000E+00

     total cpu time spent up to now is      500.9 secs

     total energy              =    -471.88026691 Ry
     estimated scf accuracy    <       0.03538835 Ry

     iteration #  4     ecut=    40.00 Ry     beta= 0.70
     Davidson diagonalization with overlap
     ethr =  2.41E-05,  avg # of iterations =  7.3

     negative rho (up, down):  1.420E-03 0.000E+00

     total cpu time spent up to now is      501.9 secs

     total energy              =    -471.88326875 Ry
     estimated scf accuracy    <       0.01103230 Ry

     iteration #  5     ecut=    40.00 Ry     beta= 0.70
     Davidson diagonalization with overlap
     ethr =  2.41E-05,  avg # of iterations =  1.3

     negative rho (up, down):  1.176E-03 0.000E+00

     total cpu time spent up to now is      502.8 secs

     total energy              =    -471.88430327 Ry
     estimated scf accuracy    <       0.00040276 Ry

     iteration #  6     ecut=    40.00 Ry     beta= 0.70
     Davidson diagonalization with overlap
     ethr =  9.59E-07,  avg # of iterations =  8.5

     negative rho (up, down):  1.157E-03 0.000E+00

     total cpu time spent up to now is      504.1 secs

     total energy              =    -471.88443736 Ry
     estimated scf accuracy    <       0.00012696 Ry

     iteration #  7     ecut=    40.00 Ry     beta= 0.70
     Davidson diagonalization with overlap
     ethr =  3.02E-07,  avg # of iterations =  4.2

     negative rho (up, down):  1.126E-03 0.000E+00

     total cpu time spent up to now is      505.1 secs

     total energy              =    -471.88448691 Ry
     estimated scf accuracy    <       0.00004612 Ry

     iteration #  8     ecut=    40.00 Ry     beta= 0.70
     Davidson diagonalization with overlap
     ethr =  1.10E-07,  avg # of iterations =  5.4

     negative rho (up, down):  1.133E-03 0.000E+00

     total cpu time spent up to now is      506.1 secs

     total energy              =    -471.88449692 Ry
     estimated scf accuracy    <       0.00002984 Ry

     iteration #  9     ecut=    40.00 Ry     beta= 0.70
     Davidson diagonalization with overlap
     ethr =  7.11E-08,  avg # of iterations =  2.2

     negative rho (up, down):  1.142E-03 0.000E+00

     total cpu time spent up to now is      507.0 secs

     total energy              =    -471.88449699 Ry
     estimated scf accuracy    <       0.00000893 Ry

     iteration # 10     ecut=    40.00 Ry     beta= 0.70
     Davidson diagonalization with overlap
     ethr =  2.13E-08,  avg # of iterations =  6.0

     negative rho (up, down):  1.143E-03 0.000E+00

     total cpu time spent up to now is      508.2 secs

     total energy              =    -471.88450130 Ry
     estimated scf accuracy    <       0.00000326 Ry

     iteration # 11     ecut=    40.00 Ry     beta= 0.70
     Davidson diagonalization with overlap
     ethr =  7.76E-09,  avg # of iterations =  2.4

     negative rho (up, down):  1.143E-03 0.000E+00

     total cpu time spent up to now is      508.9 secs

     total energy              =    -471.88450084 Ry
     estimated scf accuracy    <       0.00000155 Ry

     iteration # 12     ecut=    40.00 Ry     beta= 0.70
     Davidson diagonalization with overlap
     ethr =  3.68E-09,  avg # of iterations =  4.2

     negative rho (up, down):  1.143E-03 0.000E+00

     total cpu time spent up to now is      509.9 secs

     total energy              =    -471.88450131 Ry
     estimated scf accuracy    <       0.00000007 Ry

     iteration # 13     ecut=    40.00 Ry     beta= 0.70
     Davidson diagonalization with overlap
     ethr =  1.68E-10,  avg # of iterations =  7.5

     negative rho (up, down):  1.143E-03 0.000E+00

     total cpu time spent up to now is      511.0 secs

     total energy              =    -471.88450135 Ry
     estimated scf accuracy    <       0.00000004 Ry

     iteration # 14     ecut=    40.00 Ry     beta= 0.70
     Davidson diagonalization with overlap
     ethr =  9.03E-11,  avg # of iterations =  3.5

     negative rho (up, down):  1.142E-03 0.000E+00

     total cpu time spent up to now is      511.9 secs

     total energy              =    -471.88450136 Ry
     estimated scf accuracy    <          2.9E-09 Ry

     iteration # 15     ecut=    40.00 Ry     beta= 0.70
     Davidson diagonalization with overlap
     ethr =  6.91E-12,  avg # of iterations =  6.6

     negative rho (up, down):  1.143E-03 0.000E+00

     total cpu time spent up to now is      513.2 secs

     total energy              =    -471.88450136 Ry
     estimated scf accuracy    <       0.00000001 Ry

     iteration # 16     ecut=    40.00 Ry     beta= 0.70
     Davidson diagonalization with overlap
     ethr =  6.91E-12,  avg # of iterations =  4.9

     negative rho (up, down):  1.143E-03 0.000E+00

     total cpu time spent up to now is      514.4 secs

     End of self-consistent calculation

          k = 0.0000 0.0000 0.0000 (  5509 PWs)   bands (ev):

   -55.2277 -55.1520 -31.7604 -31.3747 -31.3329 -31.2686 -31.2574 -31.2230
   -19.5970 -19.5023  -9.7796  -7.4389  -6.4784  -3.1091  -2.8411  -2.6371
    -2.4916  -1.6674  -0.1451  -0.0208   2.2083   2.3128   2.4228   2.5917
     2.8198

          k = 0.0000 0.2887 0.0000 (  5504 PWs)   bands (ev):

   -55.1935 -55.1336 -31.6951 -31.5341 -31.4146 -31.3911 -31.3149 -31.2867
   -19.4127 -19.2919  -9.0402  -7.2015  -6.9044  -3.8166  -3.3984  -2.8478
    -2.7596  -1.5963  -1.2352  -0.4052   1.3457   3.0130   3.2669   3.4137
     3.7506

          k = 0.0000-0.5773 0.0000 (  5552 PWs)   bands (ev):

   -55.1560 -55.1183 -31.7639 -31.6624 -31.5146 -31.4481 -31.3411 -31.3108
   -19.2329 -19.0779  -8.2819  -7.1247  -7.0311  -4.8128  -4.2045  -3.0134
    -2.8672  -2.1663  -0.9641  -0.4073   0.4967   3.7678   4.3682   4.6214
     4.7158

          k = 0.2500 0.1443 0.0000 (  5504 PWs)   bands (ev):

   -55.1915 -55.1361 -31.7007 -31.5670 -31.4394 -31.3501 -31.3173 -31.2530
   -19.4116 -19.2825  -9.0966  -7.2674  -6.8020  -3.7739  -3.4738  -2.8368
    -2.6859  -1.7140  -1.4090  -0.4165   1.2258   3.1350   3.2721   3.4551
     3.8800

          k = 0.2500 0.4330 0.0000 (  5528 PWs)   bands (ev):

   -55.1524 -55.1224 -31.6917 -31.6420 -31.5466 -31.4318 -31.4072 -31.3196
   -19.2302 -19.0659  -8.2748  -7.1860  -7.0848  -4.2053  -3.9073  -3.2773
    -3.2205  -2.2265  -1.5187  -1.1031   2.4250   2.5864   3.9800   4.3387
     4.4828

          k = 0.2500-0.4330 0.0000 (  5528 PWs)   bands (ev):

   -55.1534 -55.1207 -31.6860 -31.6450 -31.5463 -31.4376 -31.4295 -31.3019
   -19.2310 -19.0940  -8.2584  -7.0898  -6.9006  -4.2130  -4.1556  -3.3953
    -3.1845  -1.9415  -1.5659  -1.1063   2.4625   2.5609   4.0144   4.2565
     4.3740

          k = 0.2500-0.1443 0.0000 (  5504 PWs)   bands (ev):

   -55.1919 -55.1351 -31.6964 -31.5648 -31.4398 -31.3594 -31.3227 -31.2528
   -19.4122 -19.3067  -9.0335  -7.2062  -6.7797  -3.7908  -3.4062  -2.8789
    -2.7225  -1.6620  -1.2989  -0.5064   1.2803   3.0434   3.3093   3.4370
     3.7890

          k =-0.5000-0.2887 0.0000 (  5552 PWs)   bands (ev):

   -55.1473 -55.1280 -31.7837 -31.7242 -31.4514 -31.3974 -31.3838 -31.2834
   -19.2304 -19.0562  -8.3802  -7.3602  -6.9344  -4.5198  -4.0012  -3.0195
    -2.8725  -2.6342  -1.2094  -0.4586   0.4003   4.0346   4.2976   4.6992
     4.7871

          k =-0.5000-0.0000 0.0000 (  5528 PWs)   bands (ev):

   -55.1490 -55.1257 -31.7151 -31.6689 -31.5360 -31.3902 -31.3769 -31.3509
   -19.2298 -19.0830  -8.2507  -7.1117  -7.0159  -4.1858  -4.0028  -3.2953
    -3.2330  -2.2628  -1.5537  -1.1246   2.3835   2.5078   4.0345   4.3781
     4.4206

          k =-0.5000-0.8660 0.0000 (  5552 PWs)   bands (ev):

   -55.1503 -55.1238 -31.7837 -31.7181 -31.4751 -31.4055 -31.3753 -31.2815
   -19.2319 -19.1107  -8.2630  -7.0666  -6.7476  -4.8920  -4.3218  -2.9759
    -2.8320  -2.2781  -1.1197  -0.5083   0.4444   3.9116   4.3194   4.6328
     4.7136

     the Fermi energy is     2.4690 ev

!    total energy              =    -471.88450136 Ry
     total all-electron energy =     -3795.188190 Ry
     estimated scf accuracy    <          4.1E-10 Ry
     smearing contrib. (-TS)   =      -0.00512024 Ry
     internal energy E=F+TS    =    -471.87938111 Ry

     The total energy is F=E-TS. E is the sum of the following terms:
     one-electron contribution =   -3274.49423025 Ry
     hartree contribution      =    1643.62682583 Ry
     xc contribution           =     -58.30735873 Ry
     ewald contribution        =    1373.28045977 Ry
     one-center paw contrib.   =    -155.98507773 Ry

     convergence has been achieved in  16 iterations

     negative rho (up, down):  1.143E-03 0.000E+00

     Forces acting on atoms (cartesian axes, Ry/au):

     atom    1 type  1   force =     0.00111413    0.02172895   -0.01895779
     atom    2 type  1   force =    -0.00440050   -0.01379999    0.00020501
     atom    3 type  2   force =     0.00914459   -0.00990539    0.01172360
     atom    4 type  3   force =    -0.01973596   -0.00925818    0.00593219
     atom    5 type  3   force =    -0.00057362   -0.00146303    0.04255134
     atom    6 type  4   force =     0.00365834    0.00210255   -0.04166974
     atom    7 type  4   force =     0.01079302    0.01059509    0.00021539

     Total force =     0.075288     Total SCF correction =     0.000082
     Energy error            =      3.5E-04 Ry
     Gradient error          =      4.3E-02 Ry/Bohr

     number of scf cycles    =  26
     number of bfgs steps    =  25

     energy             old  =    -471.8841496358 Ry
     energy             new  =    -471.8845013586 Ry

     CASE: energy            _new < energy            _old

     new trust radius        =       0.0450082694 bohr
     new conv_thr            =       0.0000000004 Ry


ATOMIC_POSITIONS (angstrom)
Ti              -0.3353792862        1.7855326687        3.1483624907
Ti               1.2235112488        0.9600556896        5.4383596764
C                2.7270711208        0.0573190980        4.2920550543
O               -0.1289722713        1.8720234271        6.7829610258
O                1.1583512507        0.9132668256        1.8772984269
H                1.3758340118        0.9398462817        0.9275488275
H               -0.6010660747        1.4180160092        7.5068944984



     Writing config-only to output data dir ./tmp/ti2coh2.save/ :
     XML data file
     NEW-OLD atomic charge density approx. for the potential

     Check: negative core charge=   -0.000005

     negative rho (up, down):  1.132E-03 0.000E+00

     total cpu time spent up to now is      515.0 secs

     Self-consistent Calculation

     iteration #  1     ecut=    40.00 Ry     beta= 0.70
     Davidson diagonalization with overlap
     ethr =  1.00E-06,  avg # of iterations =  9.4

     negative rho (up, down):  1.132E-03 0.000E+00

     total cpu time spent up to now is      517.1 secs

     total energy              =    -471.88557124 Ry
     estimated scf accuracy    <       0.00135995 Ry

     iteration #  2     ecut=    40.00 Ry     beta= 0.70
     Davidson diagonalization with overlap
     c_bands:  2 eigenvalues not converged
     c_bands:  1 eigenvalues not converged
     ethr =  3.24E-06,  avg # of iterations = 16.9

     negative rho (up, down):  1.566E-03 0.000E+00

     total cpu time spent up to now is      518.8 secs

     total energy              =    -471.88273315 Ry
     estimated scf accuracy    <       0.04829463 Ry

     iteration #  3     ecut=    40.00 Ry     beta= 0.70
     Davidson diagonalization with overlap
     c_bands:  2 eigenvalues not converged
     c_bands:  1 eigenvalues not converged
     ethr =  3.24E-06,  avg # of iterations = 17.5

     negative rho (up, down):  1.593E-03 0.000E+00

     total cpu time spent up to now is      520.4 secs

     total energy              =    -471.88555423 Ry
     estimated scf accuracy    <       0.00960501 Ry

     iteration #  4     ecut=    40.00 Ry     beta= 0.70
     Davidson diagonalization with overlap
     ethr =  3.24E-06,  avg # of iterations =  5.0

     negative rho (up, down):  1.547E-03 0.000E+00

     total cpu time spent up to now is      521.4 secs

     total energy              =    -471.88590380 Ry
     estimated scf accuracy    <       0.00452078 Ry

     iteration #  5     ecut=    40.00 Ry     beta= 0.70
     Davidson diagonalization with overlap
     ethr =  3.24E-06,  avg # of iterations =  3.2

     negative rho (up, down):  1.325E-03 0.000E+00

     total cpu time spent up to now is      522.3 secs

     total energy              =    -471.88635186 Ry
     estimated scf accuracy    <       0.00013016 Ry

     iteration #  6     ecut=    40.00 Ry     beta= 0.70
     Davidson diagonalization with overlap
     ethr =  3.10E-07,  avg # of iterations =  6.5

     negative rho (up, down):  1.292E-03 0.000E+00

     total cpu time spent up to now is      523.4 secs

     total energy              =    -471.88640090 Ry
     estimated scf accuracy    <       0.00003859 Ry

     iteration #  7     ecut=    40.00 Ry     beta= 0.70
     Davidson diagonalization with overlap
     ethr =  9.19E-08,  avg # of iterations =  2.1

     negative rho (up, down):  1.208E-03 0.000E+00

     total cpu time spent up to now is      524.2 secs

     total energy              =    -471.88642623 Ry
     estimated scf accuracy    <       0.00001259 Ry

     iteration #  8     ecut=    40.00 Ry     beta= 0.70
     Davidson diagonalization with overlap
     ethr =  3.00E-08,  avg # of iterations =  5.6

     negative rho (up, down):  1.214E-03 0.000E+00

     total cpu time spent up to now is      525.4 secs

     total energy              =    -471.88643032 Ry
     estimated scf accuracy    <       0.00001861 Ry

     iteration #  9     ecut=    40.00 Ry     beta= 0.70
     Davidson diagonalization with overlap
     ethr =  3.00E-08,  avg # of iterations =  1.5

     negative rho (up, down):  1.214E-03 0.000E+00

     total cpu time spent up to now is      526.3 secs

     total energy              =    -471.88642885 Ry
     estimated scf accuracy    <       0.00000596 Ry

     iteration # 10     ecut=    40.00 Ry     beta= 0.70
     Davidson diagonalization with overlap
     ethr =  1.42E-08,  avg # of iterations =  4.5

     negative rho (up, down):  1.214E-03 0.000E+00

     total cpu time spent up to now is      527.3 secs

     total energy              =    -471.88643085 Ry
     estimated scf accuracy    <       0.00000102 Ry

     iteration # 11     ecut=    40.00 Ry     beta= 0.70
     Davidson diagonalization with overlap
     ethr =  2.42E-09,  avg # of iterations =  3.9

     negative rho (up, down):  1.214E-03 0.000E+00

     total cpu time spent up to now is      528.2 secs

     total energy              =    -471.88643091 Ry
     estimated scf accuracy    <       0.00000042 Ry

     iteration # 12     ecut=    40.00 Ry     beta= 0.70
     Davidson diagonalization with overlap
     ethr =  1.00E-09,  avg # of iterations =  4.7

     negative rho (up, down):  1.214E-03 0.000E+00

     total cpu time spent up to now is      529.2 secs

     total energy              =    -471.88643101 Ry
     estimated scf accuracy    <       0.00000004 Ry

     iteration # 13     ecut=    40.00 Ry     beta= 0.70
     Davidson diagonalization with overlap
     ethr =  9.02E-11,  avg # of iterations =  5.9

     negative rho (up, down):  1.214E-03 0.000E+00

     total cpu time spent up to now is      530.3 secs

     total energy              =    -471.88643102 Ry
     estimated scf accuracy    <       0.00000002 Ry

     iteration # 14     ecut=    40.00 Ry     beta= 0.70
     Davidson diagonalization with overlap
     ethr =  5.78E-11,  avg # of iterations =  1.3

     negative rho (up, down):  1.214E-03 0.000E+00

     total cpu time spent up to now is      533.4 secs

     total energy              =    -471.88643102 Ry
     estimated scf accuracy    <          7.7E-09 Ry

     iteration # 15     ecut=    40.00 Ry     beta= 0.70
     Davidson diagonalization with overlap
     ethr =  1.84E-11,  avg # of iterations =  4.0

     negative rho (up, down):  1.214E-03 0.000E+00

     total cpu time spent up to now is      534.3 secs

     total energy              =    -471.88643102 Ry
     estimated scf accuracy    <          4.0E-09 Ry

     iteration # 16     ecut=    40.00 Ry     beta= 0.70
     Davidson diagonalization with overlap
     ethr =  9.62E-12,  avg # of iterations =  2.0

     negative rho (up, down):  1.214E-03 0.000E+00

     total cpu time spent up to now is      535.2 secs

     End of self-consistent calculation

          k = 0.0000 0.0000 0.0000 (  5509 PWs)   bands (ev):

   -55.2455 -55.1723 -31.7748 -31.3921 -31.3408 -31.2947 -31.2758 -31.2502
   -19.5319 -19.4996  -9.7844  -7.4242  -6.4800  -3.1242  -2.8705  -2.6680
    -2.5144  -1.6507  -0.1620  -0.0195   2.2005   2.3015   2.3981   2.5743
     2.8447

          k = 0.0000 0.2887 0.0000 (  5504 PWs)   bands (ev):

   -55.2107 -55.1545 -31.7094 -31.5580 -31.4373 -31.4011 -31.3390 -31.3023
   -19.3222 -19.3124  -9.0508  -7.1733  -6.9020  -3.8353  -3.4132  -2.8680
    -2.7824  -1.6291  -1.2419  -0.4359   1.3241   3.0123   3.2465   3.3869
     3.7639

          k = 0.0000-0.5773 0.0000 (  5552 PWs)   bands (ev):

   -55.1714 -55.1410 -31.7861 -31.6921 -31.5179 -31.4579 -31.3651 -31.3313
   -19.1385 -19.1005  -8.2871  -7.1316  -6.9899  -4.8268  -4.2076  -3.0316
    -2.8841  -2.2248  -1.0103  -0.4528   0.4914   3.8020   4.3335   4.6156
     4.7103

          k = 0.2500 0.1443 0.0000 (  5504 PWs)   bands (ev):

   -55.2096 -55.1562 -31.7142 -31.5789 -31.4523 -31.3703 -31.3435 -31.2800
   -19.3197 -19.3028  -9.1088  -7.2487  -6.8043  -3.7902  -3.4898  -2.8661
    -2.7156  -1.7134  -1.3986  -0.4004   1.2194   3.1109   3.2472   3.4145
     3.8676

          k = 0.2500 0.4330 0.0000 (  5528 PWs)   bands (ev):

   -55.1690 -55.1440 -31.7085 -31.6594 -31.5617 -31.4437 -31.4279 -31.3484
   -19.1353 -19.0871  -8.2880  -7.1990  -7.0444  -4.2355  -3.9031  -3.3021
    -3.2352  -2.2486  -1.5333  -1.1218   2.4270   2.5598   3.9651   4.3353
     4.4555

          k = 0.2500-0.4330 0.0000 (  5528 PWs)   bands (ev):

   -55.1701 -55.1421 -31.7065 -31.6636 -31.5614 -31.4491 -31.4462 -31.3305
   -19.1360 -19.1160  -8.2690  -7.0511  -6.9103  -4.2418  -4.1536  -3.4165
    -3.2033  -1.9587  -1.5742  -1.1399   2.4535   2.5340   4.0065   4.2457
     4.3479

          k = 0.2500-0.1443 0.0000 (  5504 PWs)   bands (ev):

   -55.2100 -55.1551 -31.7102 -31.5780 -31.4565 -31.3784 -31.3452 -31.2793
   -19.3294 -19.3181  -9.0442  -7.1814  -6.7865  -3.8134  -3.4199  -2.8906
    -2.7605  -1.6556  -1.2961  -0.5057   1.2745   3.0207   3.2835   3.4105
     3.7658

          k =-0.5000-0.2887 0.0000 (  5552 PWs)   bands (ev):

   -55.1655 -55.1480 -31.7973 -31.7318 -31.4742 -31.4223 -31.3995 -31.3106
   -19.1352 -19.0760  -8.3937  -7.3693  -6.9220  -4.5439  -3.9901  -3.0465
    -2.9014  -2.6279  -1.1916  -0.4437   0.3867   3.9651   4.2907   4.6886
     4.7499

          k =-0.5000-0.0000 0.0000 (  5528 PWs)   bands (ev):

   -55.1673 -55.1455 -31.7258 -31.6760 -31.5585 -31.4191 -31.4032 -31.3674
   -19.1343 -19.1035  -8.2722  -7.0786  -7.0310  -4.2155  -3.9974  -3.3127
    -3.2556  -2.2364  -1.5557  -1.1471   2.3949   2.5099   3.9929   4.3536
     4.3909

          k =-0.5000-0.8660 0.0000 (  5552 PWs)   bands (ev):

   -55.1685 -55.1436 -31.7994 -31.7292 -31.4959 -31.4305 -31.3873 -31.3092
   -19.1373 -19.1309  -8.2733  -7.0388  -6.7655  -4.9082  -4.3308  -2.9881
    -2.8615  -2.2663  -1.1105  -0.5209   0.4393   3.8589   4.3146   4.6183
     4.7211

     the Fermi energy is     2.4613 ev

!    total energy              =    -471.88643102 Ry
     total all-electron energy =     -3795.190120 Ry
     estimated scf accuracy    <          3.0E-10 Ry
     smearing contrib. (-TS)   =      -0.00527331 Ry
     internal energy E=F+TS    =    -471.88115771 Ry

     The total energy is F=E-TS. E is the sum of the following terms:
     one-electron contribution =   -3272.70550623 Ry
     hartree contribution      =    1642.70684753 Ry
     xc contribution           =     -58.28720949 Ry
     ewald contribution        =    1372.38985158 Ry
     one-center paw contrib.   =    -155.98514109 Ry

     convergence has been achieved in  16 iterations

     negative rho (up, down):  1.214E-03 0.000E+00

     Forces acting on atoms (cartesian axes, Ry/au):

     atom    1 type  1   force =     0.00189900    0.01152139   -0.01127315
     atom    2 type  1   force =    -0.00252264   -0.00724157    0.00070172
     atom    3 type  2   force =     0.00673428   -0.00568650    0.00558761
     atom    4 type  3   force =    -0.01632856   -0.00572598    0.00052680
     atom    5 type  3   force =     0.00892235   -0.00026109    0.00006537
     atom    6 type  4   force =    -0.00549889    0.00021978   -0.00118830
     atom    7 type  4   force =     0.00679446    0.00717397    0.00557996

     Total force =     0.031168     Total SCF correction =     0.000082
     Energy error            =      1.9E-03 Ry
     Gradient error          =      1.6E-02 Ry/Bohr

     number of scf cycles    =  27
     number of bfgs steps    =  26

     energy             old  =    -471.8845013586 Ry
     energy             new  =    -471.8864310201 Ry

     CASE: energy            _new < energy            _old

     new trust radius        =       0.0446109056 bohr
     new conv_thr            =       0.0000000016 Ry


ATOMIC_POSITIONS (angstrom)
Ti              -0.3321767987        1.7946437221        3.1434356503
Ti               1.2182548597        0.9426403676        5.4356221429
C                2.7292799727        0.0494532340        4.2927187088
O               -0.1235050879        1.8769286569        6.7829880109
O                1.1592734714        0.9143165082        1.8789020100
H                1.3575750303        0.9312294530        0.9248309989
H               -0.5893514474        1.4368480580        7.5149824782



     Writing config-only to output data dir ./tmp/ti2coh2.save/ :
     XML data file
     NEW-OLD atomic charge density approx. for the potential

     Check: negative core charge=   -0.000005

     negative rho (up, down):  1.198E-03 0.000E+00

     total cpu time spent up to now is      535.9 secs

     Self-consistent Calculation

     iteration #  1     ecut=    40.00 Ry     beta= 0.70
     Davidson diagonalization with overlap
     ethr =  1.00E-06,  avg # of iterations =  7.6

     negative rho (up, down):  1.183E-03 0.000E+00

     total cpu time spent up to now is      537.8 secs

     total energy              =    -471.88714567 Ry
     estimated scf accuracy    <       0.00032155 Ry

     iteration #  2     ecut=    40.00 Ry     beta= 0.70
     Davidson diagonalization with overlap
     ethr =  7.66E-07,  avg # of iterations =  3.0

     negative rho (up, down):  1.223E-03 0.000E+00

     total cpu time spent up to now is      538.8 secs

     total energy              =    -471.88725487 Ry
     estimated scf accuracy    <       0.00015315 Ry

     iteration #  3     ecut=    40.00 Ry     beta= 0.70
     Davidson diagonalization with overlap
     ethr =  3.65E-07,  avg # of iterations =  7.1

     negative rho (up, down):  1.336E-03 0.000E+00

     total cpu time spent up to now is      540.0 secs

     total energy              =    -471.88699308 Ry
     estimated scf accuracy    <       0.00655373 Ry

     iteration #  4     ecut=    40.00 Ry     beta= 0.70
     Davidson diagonalization with overlap
     ethr =  3.65E-07,  avg # of iterations =  8.4

     negative rho (up, down):  1.302E-03 0.000E+00

     total cpu time spent up to now is      541.0 secs

     total energy              =    -471.88730175 Ry
     estimated scf accuracy    <       0.00009865 Ry

     iteration #  5     ecut=    40.00 Ry     beta= 0.70
     Davidson diagonalization with overlap
     ethr =  2.35E-07,  avg # of iterations =  2.3

     negative rho (up, down):  1.249E-03 0.000E+00

     total cpu time spent up to now is      541.9 secs

     total energy              =    -471.88731817 Ry
     estimated scf accuracy    <       0.00012848 Ry

     iteration #  6     ecut=    40.00 Ry     beta= 0.70
     Davidson diagonalization with overlap
     ethr =  2.35E-07,  avg # of iterations =  1.2

     negative rho (up, down):  1.176E-03 0.000E+00

     total cpu time spent up to now is      542.7 secs

     total energy              =    -471.88734686 Ry
     estimated scf accuracy    <       0.00001567 Ry

     iteration #  7     ecut=    40.00 Ry     beta= 0.70
     Davidson diagonalization with overlap
     ethr =  3.73E-08,  avg # of iterations =  4.9

     negative rho (up, down):  1.174E-03 0.000E+00

     total cpu time spent up to now is      543.5 secs

     total energy              =    -471.88734984 Ry
     estimated scf accuracy    <       0.00000096 Ry

     iteration #  8     ecut=    40.00 Ry     beta= 0.70
     Davidson diagonalization with overlap
     ethr =  2.29E-09,  avg # of iterations =  8.1

     negative rho (up, down):  1.177E-03 0.000E+00

     total cpu time spent up to now is      544.7 secs

     total energy              =    -471.88735037 Ry
     estimated scf accuracy    <       0.00000106 Ry

     iteration #  9     ecut=    40.00 Ry     beta= 0.70
     Davidson diagonalization with overlap
     ethr =  2.29E-09,  avg # of iterations =  2.0

     negative rho (up, down):  1.177E-03 0.000E+00

     total cpu time spent up to now is      545.6 secs

     total energy              =    -471.88735046 Ry
     estimated scf accuracy    <       0.00000026 Ry

     iteration # 10     ecut=    40.00 Ry     beta= 0.70
     Davidson diagonalization with overlap
     ethr =  6.17E-10,  avg # of iterations =  4.9

     negative rho (up, down):  1.177E-03 0.000E+00

     total cpu time spent up to now is      546.5 secs

     total energy              =    -471.88735050 Ry
     estimated scf accuracy    <       0.00000003 Ry

     iteration # 11     ecut=    40.00 Ry     beta= 0.70
     Davidson diagonalization with overlap
     ethr =  8.30E-11,  avg # of iterations =  7.3

     negative rho (up, down):  1.177E-03 0.000E+00

     total cpu time spent up to now is      547.5 secs

     total energy              =    -471.88735051 Ry
     estimated scf accuracy    <       0.00000003 Ry

     iteration # 12     ecut=    40.00 Ry     beta= 0.70
     Davidson diagonalization with overlap
     ethr =  7.41E-11,  avg # of iterations =  2.2

     negative rho (up, down):  1.177E-03 0.000E+00

     total cpu time spent up to now is      548.4 secs

     total energy              =    -471.88735051 Ry
     estimated scf accuracy    <          6.7E-09 Ry

     iteration # 13     ecut=    40.00 Ry     beta= 0.70
     Davidson diagonalization with overlap
     ethr =  1.59E-11,  avg # of iterations =  3.3

     negative rho (up, down):  1.178E-03 0.000E+00

     total cpu time spent up to now is      549.2 secs

     End of self-consistent calculation

          k = 0.0000 0.0000 0.0000 (  5509 PWs)   bands (ev):

   -55.2499 -55.1773 -31.7766 -31.3944 -31.3368 -31.3087 -31.2769 -31.2616
   -19.5432 -19.5167  -9.7930  -7.4546  -6.5014  -3.0994  -2.8957  -2.6877
    -2.5253  -1.6393  -0.1733  -0.0145   2.2013   2.3025   2.3934   2.5604
     2.8301

          k = 0.0000 0.2887 0.0000 (  5504 PWs)   bands (ev):

   -55.2148 -55.1599 -31.7113 -31.5677 -31.4465 -31.3987 -31.3463 -31.3032
   -19.3494 -19.3163  -9.0567  -7.2007  -6.9094  -3.8450  -3.4189  -2.8782
    -2.7722  -1.6442  -1.2560  -0.4545   1.3120   3.0231   3.2435   3.3807
     3.7730

          k = 0.0000-0.5773 0.0000 (  5552 PWs)   bands (ev):

   -55.1745 -55.1473 -31.7940 -31.7074 -31.5110 -31.4558 -31.3747 -31.3340
   -19.1682 -19.1053  -8.2870  -7.1171  -7.0171  -4.8419  -4.2154  -3.0363
    -2.8767  -2.2583  -1.0420  -0.4797   0.4879   3.8381   4.3195   4.6188
     4.7189

          k = 0.2500 0.1443 0.0000 (  5504 PWs)   bands (ev):

   -55.2143 -55.1609 -31.7156 -31.5781 -31.4514 -31.3785 -31.3514 -31.2912
   -19.3480 -19.3053  -9.1148  -7.2727  -6.8163  -3.7961  -3.4930  -2.8950
    -2.7328  -1.7068  -1.3852  -0.3811   1.2273   3.0999   3.2403   3.3960
     3.8538

          k = 0.2500 0.4330 0.0000 (  5528 PWs)   bands (ev):

   -55.1732 -55.1492 -31.7118 -31.6641 -31.5652 -31.4451 -31.4327 -31.3575
   -19.1650 -19.0913  -8.2892  -7.1858  -7.0715  -4.2673  -3.9036  -3.3263
    -3.2334  -2.2511  -1.5382  -1.1240   2.4376   2.5471   3.9623   4.3426
     4.4443

          k = 0.2500-0.4330 0.0000 (  5528 PWs)   bands (ev):

   -55.1740 -55.1477 -31.7144 -31.6707 -31.5636 -31.4486 -31.4447 -31.3420
   -19.1656 -19.1192  -8.2677  -7.0793  -6.9126  -4.2714  -4.1392  -3.4251
    -3.2139  -1.9718  -1.5721  -1.1557   2.4527   2.5164   4.0116   4.2447
     4.3418

          k = 0.2500-0.1443 0.0000 (  5504 PWs)   bands (ev):

   -55.2145 -55.1600 -31.7119 -31.5802 -31.4596 -31.3837 -31.3500 -31.2893
   -19.3486 -19.3286  -9.0508  -7.2105  -6.8024  -3.8269  -3.4206  -2.8860
    -2.7909  -1.6494  -1.2941  -0.5017   1.2798   3.0236   3.2711   3.4006
     3.7593

          k =-0.5000-0.2887 0.0000 (  5552 PWs)   bands (ev):

   -55.1713 -55.1516 -31.7980 -31.7272 -31.4842 -31.4342 -31.3974 -31.3219
   -19.1650 -19.0796  -8.3966  -7.3631  -6.9406  -4.5850  -3.9966  -3.0706
    -2.9184  -2.6096  -1.1650  -0.4207   0.3893   3.9243   4.2946   4.6870
     4.7329

          k =-0.5000-0.0000 0.0000 (  5528 PWs)   bands (ev):

   -55.1725 -55.1497 -31.7243 -31.6731 -31.5647 -31.4322 -31.4160 -31.3669
   -19.1640 -19.1059  -8.2792  -7.1000  -7.0323  -4.2510  -3.9934  -3.3318
    -3.2630  -2.2220  -1.5533  -1.1433   2.4078   2.5265   3.9741   4.3526
     4.3882

          k =-0.5000-0.8660 0.0000 (  5552 PWs)   bands (ev):

   -55.1734 -55.1482 -31.8030 -31.7300 -31.5000 -31.4394 -31.3863 -31.3201
   -19.1661 -19.1331  -8.2771  -7.0633  -6.7796  -4.9178  -4.3398  -2.9996
    -2.8783  -2.2638  -1.1022  -0.5227   0.4478   3.8504   4.3147   4.6155
     4.7320

     the Fermi energy is     2.4626 ev

!    total energy              =    -471.88735051 Ry
     total all-electron energy =     -3795.191040 Ry
     estimated scf accuracy    <          4.8E-10 Ry
     smearing contrib. (-TS)   =      -0.00538968 Ry
     internal energy E=F+TS    =    -471.88196083 Ry

     The total energy is F=E-TS. E is the sum of the following terms:
     one-electron contribution =   -3272.10938853 Ry
     hartree contribution      =    1642.39877835 Ry
     xc contribution           =     -58.28837650 Ry
     ewald contribution        =    1372.10219189 Ry
     one-center paw contrib.   =    -155.98516603 Ry

     convergence has been achieved in  13 iterations

     negative rho (up, down):  1.178E-03 0.000E+00

     Forces acting on atoms (cartesian axes, Ry/au):

     atom    1 type  1   force =     0.00153677    0.00491705   -0.00709598
     atom    2 type  1   force =    -0.00009765   -0.00280394    0.00233760
     atom    3 type  2   force =     0.00459324   -0.00232165    0.00325763
     atom    4 type  3   force =    -0.01309276   -0.00467600   -0.00385719
     atom    5 type  3   force =     0.00877060    0.00021733   -0.00141503
     atom    6 type  4   force =    -0.00498516    0.00015973   -0.00175712
     atom    7 type  4   force =     0.00327496    0.00450748    0.00853010

     Total force =     0.023372     Total SCF correction =     0.000069
     Energy error            =      9.2E-04 Ry
     Gradient error          =      1.3E-02 Ry/Bohr

     number of scf cycles    =  28
     number of bfgs steps    =  27

     energy             old  =    -471.8864310201 Ry
     energy             new  =    -471.8873505107 Ry

     CASE: energy            _new < energy            _old

     new trust radius        =       0.0490719962 bohr
     new conv_thr            =       0.0000000009 Ry


ATOMIC_POSITIONS (angstrom)
Ti              -0.3265540514        1.8020742274        3.1423876343
Ti               1.2203298306        0.9388756952        5.4337321279
C                2.7335081776        0.0481255508        4.2911517856
O               -0.1466159502        1.8706088157        6.7729743524
O                1.1633387926        0.9158718106        1.8830996928
H                1.3654310947        0.9348040783        0.9282623639
H               -0.5900878938        1.4356998220        7.5218720432



     Writing config-only to output data dir ./tmp/ti2coh2.save/ :
     XML data file
     NEW-OLD atomic charge density approx. for the potential

     Check: negative core charge=   -0.000005

     negative rho (up, down):  1.174E-03 0.000E+00

     total cpu time spent up to now is      549.8 secs

     Self-consistent Calculation

     iteration #  1     ecut=    40.00 Ry     beta= 0.70
     Davidson diagonalization with overlap
     ethr =  1.00E-06,  avg # of iterations =  8.1

     negative rho (up, down):  1.154E-03 0.000E+00

     total cpu time spent up to now is      551.6 secs

     total energy              =    -471.88804348 Ry
     estimated scf accuracy    <       0.00034287 Ry

     iteration #  2     ecut=    40.00 Ry     beta= 0.70
     Davidson diagonalization with overlap
     ethr =  8.16E-07,  avg # of iterations =  6.7

     negative rho (up, down):  1.114E-03 0.000E+00

     total cpu time spent up to now is      552.7 secs

     total energy              =    -471.88779440 Ry
     estimated scf accuracy    <       0.00212687 Ry

     iteration #  3     ecut=    40.00 Ry     beta= 0.70
     Davidson diagonalization with overlap
     ethr =  8.16E-07,  avg # of iterations =  8.4

     negative rho (up, down):  1.081E-03 0.000E+00

     total cpu time spent up to now is      553.8 secs

     total energy              =    -471.88796579 Ry
     estimated scf accuracy    <       0.00175899 Ry

     iteration #  4     ecut=    40.00 Ry     beta= 0.70
     Davidson diagonalization with overlap
     ethr =  8.16E-07,  avg # of iterations =  7.8

     negative rho (up, down):  1.078E-03 0.000E+00

     total cpu time spent up to now is      554.8 secs

     total energy              =    -471.88790812 Ry
     estimated scf accuracy    <       0.00526895 Ry

     iteration #  5     ecut=    40.00 Ry     beta= 0.70
     Davidson diagonalization with overlap
     ethr =  8.16E-07,  avg # of iterations =  4.0

     negative rho (up, down):  1.086E-03 0.000E+00

     total cpu time spent up to now is      555.7 secs

     total energy              =    -471.88814945 Ry
     estimated scf accuracy    <       0.00007341 Ry

     iteration #  6     ecut=    40.00 Ry     beta= 0.70
     Davidson diagonalization with overlap
     ethr =  1.75E-07,  avg # of iterations =  5.6

     negative rho (up, down):  1.076E-03 0.000E+00

     total cpu time spent up to now is      556.7 secs

     total energy              =    -471.88817215 Ry
     estimated scf accuracy    <       0.00000662 Ry

     iteration #  7     ecut=    40.00 Ry     beta= 0.70
     Davidson diagonalization with overlap
     ethr =  1.58E-08,  avg # of iterations =  5.6

     negative rho (up, down):  1.073E-03 0.000E+00

     total cpu time spent up to now is      557.7 secs

     total energy              =    -471.88817626 Ry
     estimated scf accuracy    <       0.00000603 Ry

     iteration #  8     ecut=    40.00 Ry     beta= 0.70
     Davidson diagonalization with overlap
     ethr =  1.43E-08,  avg # of iterations =  1.5

     negative rho (up, down):  1.072E-03 0.000E+00

     total cpu time spent up to now is      558.5 secs

     total energy              =    -471.88817650 Ry
     estimated scf accuracy    <       0.00000073 Ry

     iteration #  9     ecut=    40.00 Ry     beta= 0.70
     Davidson diagonalization with overlap
     ethr =  1.74E-09,  avg # of iterations =  5.1

     negative rho (up, down):  1.072E-03 0.000E+00

     total cpu time spent up to now is      559.6 secs

     total energy              =    -471.88817669 Ry
     estimated scf accuracy    <       0.00000006 Ry

     iteration # 10     ecut=    40.00 Ry     beta= 0.70
     Davidson diagonalization with overlap
     ethr =  1.39E-10,  avg # of iterations =  7.5

     negative rho (up, down):  1.072E-03 0.000E+00

     total cpu time spent up to now is      560.8 secs

     total energy              =    -471.88817671 Ry
     estimated scf accuracy    <       0.00000009 Ry

     iteration # 11     ecut=    40.00 Ry     beta= 0.70
     Davidson diagonalization with overlap
     ethr =  1.39E-10,  avg # of iterations =  1.9

     negative rho (up, down):  1.071E-03 0.000E+00

     total cpu time spent up to now is      561.6 secs

     total energy              =    -471.88817671 Ry
     estimated scf accuracy    <       0.00000003 Ry

     iteration # 12     ecut=    40.00 Ry     beta= 0.70
     Davidson diagonalization with overlap
     ethr =  7.52E-11,  avg # of iterations =  2.4

     negative rho (up, down):  1.071E-03 0.000E+00

     total cpu time spent up to now is      562.5 secs

     total energy              =    -471.88817671 Ry
     estimated scf accuracy    <          1.5E-09 Ry

     iteration # 13     ecut=    40.00 Ry     beta= 0.70
     Davidson diagonalization with overlap
     ethr =  3.50E-12,  avg # of iterations =  8.8

     negative rho (up, down):  1.071E-03 0.000E+00

     total cpu time spent up to now is      563.9 secs

     total energy              =    -471.88817671 Ry
     estimated scf accuracy    <       0.00000001 Ry

     iteration # 14     ecut=    40.00 Ry     beta= 0.70
     Davidson diagonalization with overlap
     ethr =  3.50E-12,  avg # of iterations =  3.4

     negative rho (up, down):  1.071E-03 0.000E+00

     total cpu time spent up to now is      564.8 secs

     total energy              =    -471.88817671 Ry
     estimated scf accuracy    <          2.1E-09 Ry

     iteration # 15     ecut=    40.00 Ry     beta= 0.70
     Davidson diagonalization with overlap
     ethr =  3.50E-12,  avg # of iterations =  1.4

     negative rho (up, down):  1.071E-03 0.000E+00

     total cpu time spent up to now is      568.1 secs

     End of self-consistent calculation

          k = 0.0000 0.0000 0.0000 (  5509 PWs)   bands (ev):

   -55.2519 -55.1792 -31.7786 -31.3956 -31.3364 -31.3138 -31.2771 -31.2666
   -19.5580 -19.5319  -9.8004  -7.4829  -6.5299  -3.1124  -2.9254  -2.7044
    -2.5454  -1.6597  -0.1585  -0.0058   2.1987   2.3018   2.3876   2.5541
     2.7674

          k = 0.0000 0.2887 0.0000 (  5504 PWs)   bands (ev):

   -55.2167 -55.1619 -31.7131 -31.5728 -31.4503 -31.3983 -31.3490 -31.3037
   -19.3628 -19.3344  -9.0615  -7.2190  -6.9438  -3.8703  -3.4376  -2.9002
    -2.7785  -1.6548  -1.2588  -0.4620   1.3080   3.0201   3.2522   3.3642
     3.7700

          k = 0.0000-0.5773 0.0000 (  5552 PWs)   bands (ev):

   -55.1759 -55.1498 -31.7981 -31.7151 -31.5079 -31.4556 -31.3795 -31.3347
   -19.1819 -19.1255  -8.2892  -7.1395  -7.0290  -4.8681  -4.2438  -3.0553
    -2.8865  -2.2687  -1.0518  -0.4869   0.4854   3.8532   4.3124   4.6257
     4.7167

          k = 0.2500 0.1443 0.0000 (  5504 PWs)   bands (ev):

   -55.2163 -55.1627 -31.7171 -31.5805 -31.4541 -31.3810 -31.3537 -31.2939
   -19.3612 -19.3248  -9.1201  -7.2901  -6.8404  -3.8177  -3.5096  -2.9214
    -2.7516  -1.7048  -1.3874  -0.3826   1.2235   3.1051   3.2416   3.3877
     3.8305

          k = 0.2500 0.4330 0.0000 (  5528 PWs)   bands (ev):

   -55.1750 -55.1512 -31.7152 -31.6697 -31.5673 -31.4434 -31.4342 -31.3612
   -19.1784 -19.1132  -8.2900  -7.1977  -7.0860  -4.2897  -3.9397  -3.3472
    -3.2474  -2.2520  -1.5438  -1.1259   2.4358   2.5456   3.9654   4.3429
     4.4368

          k = 0.2500-0.4330 0.0000 (  5528 PWs)   bands (ev):

   -55.1757 -55.1498 -31.7167 -31.6744 -31.5649 -31.4503 -31.4454 -31.3463
   -19.1791 -19.1386  -8.2696  -7.0929  -6.9438  -4.2935  -4.1593  -3.4438
    -3.2355  -1.9826  -1.5753  -1.1569   2.4631   2.5151   4.0236   4.2563
     4.3461

          k = 0.2500-0.1443 0.0000 (  5504 PWs)   bands (ev):

   -55.2165 -55.1619 -31.7134 -31.5812 -31.4602 -31.3878 -31.3507 -31.2949
   -19.3620 -19.3461  -9.0567  -7.2273  -6.8397  -3.8510  -3.4387  -2.9083
    -2.8169  -1.6509  -1.2872  -0.4983   1.2851   3.0181   3.2712   3.3827
     3.7504

          k =-0.5000-0.2887 0.0000 (  5552 PWs)   bands (ev):

   -55.1738 -55.1529 -31.8008 -31.7298 -31.4877 -31.4380 -31.3969 -31.3247
   -19.1782 -19.1032  -8.3975  -7.3641  -6.9531  -4.6026  -4.0463  -3.0910
    -2.9367  -2.6033  -1.1624  -0.4206   0.3811   3.9117   4.2938   4.6919
     4.7262

          k =-0.5000-0.0000 0.0000 (  5528 PWs)   bands (ev):

   -55.1747 -55.1513 -31.7251 -31.6740 -31.5675 -31.4375 -31.4220 -31.3658
   -19.1771 -19.1271  -8.2829  -7.1143  -7.0448  -4.2748  -4.0295  -3.3522
    -3.2806  -2.2220  -1.5546  -1.1391   2.4119   2.5363   3.9701   4.3414
     4.3939

          k =-0.5000-0.8660 0.0000 (  5552 PWs)   bands (ev):

   -55.1754 -55.1500 -31.8052 -31.7289 -31.5035 -31.4443 -31.3850 -31.3260
   -19.1795 -19.1521  -8.2819  -7.0785  -6.8047  -4.9412  -4.3677  -3.0282
    -2.9018  -2.2617  -1.0926  -0.5181   0.4535   3.8460   4.3131   4.6191
     4.7302

     the Fermi energy is     2.4640 ev

!    total energy              =    -471.88817671 Ry
     total all-electron energy =     -3795.191866 Ry
     estimated scf accuracy    <          8.4E-10 Ry
     smearing contrib. (-TS)   =      -0.00540314 Ry
     internal energy E=F+TS    =    -471.88277357 Ry

     The total energy is F=E-TS. E is the sum of the following terms:
     one-electron contribution =   -3275.49760543 Ry
     hartree contribution      =    1644.07995357 Ry
     xc contribution           =     -58.28955542 Ry
     ewald contribution        =    1373.80973231 Ry
     one-center paw contrib.   =    -155.98529860 Ry

     convergence has been achieved in  15 iterations

     negative rho (up, down):  1.071E-03 0.000E+00

     Forces acting on atoms (cartesian axes, Ry/au):

     atom    1 type  1   force =     0.00028438    0.00131658   -0.00522125
     atom    2 type  1   force =    -0.00000631   -0.00081774    0.00320784
     atom    3 type  2   force =     0.00356988   -0.00050630    0.00325222
     atom    4 type  3   force =    -0.01170021   -0.00594315   -0.00372890
     atom    5 type  3   force =     0.00978815    0.00092116   -0.00619914
     atom    6 type  4   force =    -0.00555041   -0.00000863    0.00049116
     atom    7 type  4   force =     0.00361452    0.00503808    0.00819807

     Total force =     0.022837     Total SCF correction =     0.000155
     Energy error            =      8.3E-04 Ry
     Gradient error          =      1.2E-02 Ry/Bohr

     number of scf cycles    =  29
     number of bfgs steps    =  28

     energy             old  =    -471.8873505107 Ry
     energy             new  =    -471.8881767137 Ry

     CASE: energy            _new < energy            _old

     new trust radius        =       0.0736079942 bohr
     new conv_thr            =       0.0000000008 Ry


ATOMIC_POSITIONS (angstrom)
Ti              -0.3177403792        1.8092054444        3.1395639421
Ti               1.2235231292        0.9351587266        5.4312267987
C                2.7408237742        0.0458190842        4.2885552991
O               -0.1814112095        1.8628386801        6.7572852556
O                1.1715941420        0.9142568701        1.8877589964
H                1.3695181993        0.9375168685        0.9332519565
H               -0.5869576561        1.4412643261        7.5358377517



     Writing config-only to output data dir ./tmp/ti2coh2.save/ :
     XML data file
     NEW-OLD atomic charge density approx. for the potential

     Check: negative core charge=   -0.000005

     negative rho (up, down):  1.066E-03 0.000E+00

     total cpu time spent up to now is      568.7 secs

     Self-consistent Calculation

     iteration #  1     ecut=    40.00 Ry     beta= 0.70
     Davidson diagonalization with overlap
     ethr =  1.00E-06,  avg # of iterations =  9.8

     negative rho (up, down):  1.025E-03 0.000E+00

     total cpu time spent up to now is      571.0 secs

     total energy              =    -471.88916411 Ry
     estimated scf accuracy    <       0.00072405 Ry

     iteration #  2     ecut=    40.00 Ry     beta= 0.70
     Davidson diagonalization with overlap
     ethr =  1.72E-06,  avg # of iterations =  6.5

     negative rho (up, down):  9.826E-04 0.000E+00

     total cpu time spent up to now is      572.3 secs

     total energy              =    -471.88845883 Ry
     estimated scf accuracy    <       0.00725232 Ry

     iteration #  3     ecut=    40.00 Ry     beta= 0.70
     Davidson diagonalization with overlap
     ethr =  1.72E-06,  avg # of iterations = 10.2

     negative rho (up, down):  9.508E-04 0.000E+00

     total cpu time spent up to now is      573.6 secs

     total energy              =    -471.88886728 Ry
     estimated scf accuracy    <       0.00466874 Ry

     iteration #  4     ecut=    40.00 Ry     beta= 0.70
     Davidson diagonalization with overlap
     ethr =  1.72E-06,  avg # of iterations = 11.7

     negative rho (up, down):  9.366E-04 0.000E+00

     total cpu time spent up to now is      574.9 secs

     total energy              =    -471.88892316 Ry
     estimated scf accuracy    <       0.00927242 Ry

     iteration #  5     ecut=    40.00 Ry     beta= 0.70
     Davidson diagonalization with overlap
     ethr =  1.72E-06,  avg # of iterations =  4.2

     negative rho (up, down):  9.493E-04 0.000E+00

     total cpu time spent up to now is      575.9 secs

     total energy              =    -471.88934108 Ry
     estimated scf accuracy    <       0.00030803 Ry

     iteration #  6     ecut=    40.00 Ry     beta= 0.70
     Davidson diagonalization with overlap
     ethr =  7.33E-07,  avg # of iterations =  3.9

     negative rho (up, down):  9.388E-04 0.000E+00

     total cpu time spent up to now is      576.8 secs

     total energy              =    -471.88939696 Ry
     estimated scf accuracy    <       0.00004066 Ry

     iteration #  7     ecut=    40.00 Ry     beta= 0.70
     Davidson diagonalization with overlap
     ethr =  9.68E-08,  avg # of iterations =  7.8

     negative rho (up, down):  9.349E-04 0.000E+00

     total cpu time spent up to now is      577.9 secs

     total energy              =    -471.88941319 Ry
     estimated scf accuracy    <       0.00002047 Ry

     iteration #  8     ecut=    40.00 Ry     beta= 0.70
     Davidson diagonalization with overlap
     ethr =  4.87E-08,  avg # of iterations =  1.4

     negative rho (up, down):  9.360E-04 0.000E+00

     total cpu time spent up to now is      578.6 secs

     total energy              =    -471.88941420 Ry
     estimated scf accuracy    <       0.00000232 Ry

     iteration #  9     ecut=    40.00 Ry     beta= 0.70
     Davidson diagonalization with overlap
     ethr =  5.51E-09,  avg # of iterations =  5.3

     negative rho (up, down):  9.365E-04 0.000E+00

     total cpu time spent up to now is      579.6 secs

     total energy              =    -471.88941479 Ry
     estimated scf accuracy    <       0.00000020 Ry

     iteration # 10     ecut=    40.00 Ry     beta= 0.70
     Davidson diagonalization with overlap
     ethr =  4.88E-10,  avg # of iterations =  6.0

     negative rho (up, down):  9.362E-04 0.000E+00

     total cpu time spent up to now is      580.6 secs

     total energy              =    -471.88941486 Ry
     estimated scf accuracy    <       0.00000005 Ry

     iteration # 11     ecut=    40.00 Ry     beta= 0.70
     Davidson diagonalization with overlap
     ethr =  1.18E-10,  avg # of iterations =  3.8

     negative rho (up, down):  9.359E-04 0.000E+00

     total cpu time spent up to now is      581.5 secs

     total energy              =    -471.88941487 Ry
     estimated scf accuracy    <          4.8E-09 Ry

     iteration # 12     ecut=    40.00 Ry     beta= 0.70
     Davidson diagonalization with overlap
     ethr =  1.14E-11,  avg # of iterations =  6.5

     negative rho (up, down):  9.357E-04 0.000E+00

     total cpu time spent up to now is      582.5 secs

     End of self-consistent calculation

          k = 0.0000 0.0000 0.0000 (  5509 PWs)   bands (ev):

   -55.2805 -55.2078 -31.8057 -31.4230 -31.3630 -31.3457 -31.3047 -31.2979
   -19.6172 -19.5718  -9.8375  -7.5590  -6.5945  -3.1475  -2.9931  -2.7544
    -2.5950  -1.7155  -0.1523  -0.0144   2.1701   2.2793   2.3559   2.5167
     2.6690

          k = 0.0000 0.2887 0.0000 (  5504 PWs)   bands (ev):

   -55.2450 -55.1905 -31.7401 -31.6049 -31.4818 -31.4244 -31.3779 -31.3308
   -19.4291 -19.3706  -9.0935  -7.2830  -7.0114  -3.9305  -3.4866  -2.9578
    -2.8053  -1.6920  -1.2874  -0.4897   1.2798   2.9906   3.2413   3.3209
     3.7358

          k = 0.0000-0.5773 0.0000 (  5552 PWs)   bands (ev):

   -55.2038 -55.1788 -31.8288 -31.7502 -31.5306 -31.4815 -31.4109 -31.3621
   -19.2494 -19.1650  -8.3163  -7.1795  -7.0865  -4.9334  -4.3107  -3.1074
    -2.9198  -2.3043  -1.0874  -0.5145   0.4577   3.8414   4.2798   4.6104
     4.6881

          k = 0.2500 0.1443 0.0000 (  5504 PWs)   bands (ev):

   -55.2449 -55.1910 -31.7436 -31.6099 -31.4845 -31.4105 -31.3821 -31.3231
   -19.4275 -19.3632  -9.1512  -7.3476  -6.8988  -3.8739  -3.5535  -2.9878
    -2.7957  -1.7268  -1.4118  -0.4078   1.1966   3.0875   3.2229   3.3517
     3.7719

          k = 0.2500 0.4330 0.0000 (  5528 PWs)   bands (ev):

   -55.2034 -55.1795 -31.7449 -31.7028 -31.5959 -31.4680 -31.4620 -31.3914
   -19.2458 -19.1553  -8.3134  -7.2232  -7.1469  -4.3518  -4.0145  -3.4068
    -3.2855  -2.2720  -1.5751  -1.1524   2.4114   2.5224   3.9428   4.3155
     4.4029

          k = 0.2500-0.4330 0.0000 (  5528 PWs)   bands (ev):

   -55.2040 -55.1785 -31.7451 -31.7048 -31.5923 -31.4784 -31.4731 -31.3776
   -19.2465 -19.1766  -8.2950  -7.1525  -7.0033  -4.3559  -4.2065  -3.4913
    -3.2898  -2.0246  -1.6029  -1.1800   2.4566   2.4914   4.0108   4.2480
     4.3313

          k = 0.2500-0.1443 0.0000 (  5504 PWs)   bands (ev):

   -55.2450 -55.1904 -31.7403 -31.6085 -31.4873 -31.4191 -31.3774 -31.3281
   -19.4279 -19.3816  -9.0907  -7.2899  -6.9120  -3.9107  -3.4861  -2.9649
    -2.8753  -1.6798  -1.3009  -0.5120   1.2697   2.9904   3.2461   3.3389
     3.7156

          k =-0.5000-0.2887 0.0000 (  5552 PWs)   bands (ev):

   -55.2029 -55.1805 -31.8306 -31.7593 -31.5181 -31.4683 -31.4223 -31.3542
   -19.2455 -19.1478  -8.4192  -7.3815  -7.0001  -4.6635  -4.1447  -3.1483
    -2.9793  -2.6157  -1.1826  -0.4438   0.3494   3.8704   4.2681   4.6729
     4.6919

          k =-0.5000-0.0000 0.0000 (  5528 PWs)   bands (ev):

   -55.2036 -55.1793 -31.7518 -31.7017 -31.5958 -31.4706 -31.4555 -31.3906
   -19.2443 -19.1678  -8.3099  -7.1721  -7.0771  -4.3404  -4.1023  -3.4119
    -3.3212  -2.2500  -1.5801  -1.1550   2.3927   2.5298   3.9390   4.3030
     4.3808

          k =-0.5000-0.8660 0.0000 (  5552 PWs)   bands (ev):

   -55.2040 -55.1784 -31.8340 -31.7533 -31.5329 -31.4762 -31.4098 -31.3596
   -19.2467 -19.1892  -8.3128  -7.1372  -6.8605  -4.9957  -4.4305  -3.0963
    -2.9574  -2.2908  -1.1038  -0.5320   0.4399   3.8182   4.2846   4.6014
     4.7012

     the Fermi energy is     2.4427 ev

!    total energy              =    -471.88941487 Ry
     total all-electron energy =     -3795.193104 Ry
     estimated scf accuracy    <          4.9E-10 Ry
     smearing contrib. (-TS)   =      -0.00542383 Ry
     internal energy E=F+TS    =    -471.88399104 Ry

     The total energy is F=E-TS. E is the sum of the following terms:
     one-electron contribution =   -3279.77336178 Ry
     hartree contribution      =    1646.16165387 Ry
     xc contribution           =     -58.29208473 Ry
     ewald contribution        =    1376.00531806 Ry
     one-center paw contrib.   =    -155.98551646 Ry

     convergence has been achieved in  12 iterations

     negative rho (up, down):  9.357E-04 0.000E+00

     Forces acting on atoms (cartesian axes, Ry/au):

     atom    1 type  1   force =    -0.00113106   -0.00295735   -0.00187752
     atom    2 type  1   force =     0.00034562    0.00115737    0.00417579
     atom    3 type  2   force =     0.00143821    0.00172549    0.00294012
     atom    4 type  3   force =    -0.01005960   -0.00837175   -0.00256345
     atom    5 type  3   force =     0.00959784    0.00220808   -0.00740653
     atom    6 type  4   force =    -0.00493768   -0.00015535   -0.00199297
     atom    7 type  4   force =     0.00474667    0.00639351    0.00672456

     Total force =     0.022646     Total SCF correction =     0.000071
     Energy error            =      1.2E-03 Ry
     Gradient error          =      1.0E-02 Ry/Bohr

     number of scf cycles    =  30
     number of bfgs steps    =  29

     energy             old  =    -471.8881767137 Ry
     energy             new  =    -471.8894148712 Ry

     CASE: energy            _new < energy            _old

     new trust radius        =       0.1104119913 bohr
     new conv_thr            =       0.0000000010 Ry


ATOMIC_POSITIONS (angstrom)
Ti              -0.3044683410        1.8155672218        3.1349401924
Ti               1.2281455396        0.9300183594        5.4281031238
C                2.7517705581        0.0418628664        4.2841273857
O               -0.2333384351        1.8507167222        6.7334023064
O                1.1860230626        0.9114897584        1.8937110676
H                1.3686924343        0.9385737872        0.9386096193
H               -0.5774748185        1.4578312845        7.5605863048



     Writing config-only to output data dir ./tmp/ti2coh2.save/ :
     XML data file
     NEW-OLD atomic charge density approx. for the potential

     Check: negative core charge=   -0.000005

     negative rho (up, down):  9.236E-04 0.000E+00

     total cpu time spent up to now is      583.1 secs

     Self-consistent Calculation

     iteration #  1     ecut=    40.00 Ry     beta= 0.70
     Davidson diagonalization with overlap
     ethr =  1.00E-06,  avg # of iterations = 12.9

     negative rho (up, down):  8.721E-04 0.000E+00

     total cpu time spent up to now is      585.5 secs

     total energy              =    -471.89055859 Ry
     estimated scf accuracy    <       0.00155055 Ry

     iteration #  2     ecut=    40.00 Ry     beta= 0.70
     Davidson diagonalization with overlap
     ethr =  3.69E-06,  avg # of iterations =  8.6

     negative rho (up, down):  8.994E-04 0.000E+00

     total cpu time spent up to now is      586.7 secs

     total energy              =    -471.88895946 Ry
     estimated scf accuracy    <       0.01713814 Ry

     iteration #  3     ecut=    40.00 Ry     beta= 0.70
     Davidson diagonalization with overlap
     ethr =  3.69E-06,  avg # of iterations = 13.0

     negative rho (up, down):  8.607E-04 0.000E+00

     total cpu time spent up to now is      587.9 secs

     total energy              =    -471.88985566 Ry
     estimated scf accuracy    <       0.01108139 Ry

     iteration #  4     ecut=    40.00 Ry     beta= 0.70
     Davidson diagonalization with overlap
     c_bands:  1 eigenvalues not converged
     ethr =  3.69E-06,  avg # of iterations = 13.9

     negative rho (up, down):  8.663E-04 0.000E+00

     total cpu time spent up to now is      589.1 secs

     total energy              =    -471.88997409 Ry
     estimated scf accuracy    <       0.02013810 Ry

     iteration #  5     ecut=    40.00 Ry     beta= 0.70
     Davidson diagonalization with overlap
     ethr =  3.69E-06,  avg # of iterations =  4.7

     negative rho (up, down):  8.678E-04 0.000E+00

     total cpu time spent up to now is      590.1 secs

     total energy              =    -471.89090129 Ry
     estimated scf accuracy    <       0.00022887 Ry

     iteration #  6     ecut=    40.00 Ry     beta= 0.70
     Davidson diagonalization with overlap
     ethr =  5.45E-07,  avg # of iterations =  8.5

     negative rho (up, down):  8.629E-04 0.000E+00

     total cpu time spent up to now is      591.2 secs

     total energy              =    -471.89096368 Ry
     estimated scf accuracy    <       0.00025544 Ry

     iteration #  7     ecut=    40.00 Ry     beta= 0.70
     Davidson diagonalization with overlap
     ethr =  5.45E-07,  avg # of iterations =  1.5

     negative rho (up, down):  8.568E-04 0.000E+00

     total cpu time spent up to now is      592.0 secs

     total energy              =    -471.89099068 Ry
     estimated scf accuracy    <       0.00005210 Ry

     iteration #  8     ecut=    40.00 Ry     beta= 0.70
     Davidson diagonalization with overlap
     ethr =  1.24E-07,  avg # of iterations =  3.3

     negative rho (up, down):  8.545E-04 0.000E+00

     total cpu time spent up to now is      593.0 secs

     total energy              =    -471.89099693 Ry
     estimated scf accuracy    <       0.00000413 Ry

     iteration #  9     ecut=    40.00 Ry     beta= 0.70
     Davidson diagonalization with overlap
     ethr =  9.83E-09,  avg # of iterations =  6.2

     negative rho (up, down):  8.528E-04 0.000E+00

     total cpu time spent up to now is      594.2 secs

     total energy              =    -471.89099861 Ry
     estimated scf accuracy    <       0.00000321 Ry

     iteration # 10     ecut=    40.00 Ry     beta= 0.70
     Davidson diagonalization with overlap
     ethr =  7.65E-09,  avg # of iterations =  2.2

     negative rho (up, down):  8.501E-04 0.000E+00

     total cpu time spent up to now is      595.1 secs

     total energy              =    -471.89099873 Ry
     estimated scf accuracy    <       0.00000091 Ry

     iteration # 11     ecut=    40.00 Ry     beta= 0.70
     Davidson diagonalization with overlap
     ethr =  2.16E-09,  avg # of iterations =  6.2

     negative rho (up, down):  8.500E-04 0.000E+00

     total cpu time spent up to now is      596.1 secs

     total energy              =    -471.89099896 Ry
     estimated scf accuracy    <       0.00000077 Ry

     iteration # 12     ecut=    40.00 Ry     beta= 0.70
     Davidson diagonalization with overlap
     ethr =  1.82E-09,  avg # of iterations =  1.5

     negative rho (up, down):  8.503E-04 0.000E+00

     total cpu time spent up to now is      596.9 secs

     total energy              =    -471.89099895 Ry
     estimated scf accuracy    <       0.00000019 Ry

     iteration # 13     ecut=    40.00 Ry     beta= 0.70
     Davidson diagonalization with overlap
     ethr =  4.58E-10,  avg # of iterations =  5.6

     negative rho (up, down):  8.502E-04 0.000E+00

     total cpu time spent up to now is      597.9 secs

     total energy              =    -471.89099901 Ry
     estimated scf accuracy    <       0.00000006 Ry

     iteration # 14     ecut=    40.00 Ry     beta= 0.70
     Davidson diagonalization with overlap
     ethr =  1.36E-10,  avg # of iterations =  2.8

     negative rho (up, down):  8.501E-04 0.000E+00

     total cpu time spent up to now is      598.7 secs

     total energy              =    -471.89099901 Ry
     estimated scf accuracy    <          9.3E-09 Ry

     iteration # 15     ecut=    40.00 Ry     beta= 0.70
     Davidson diagonalization with overlap
     ethr =  2.22E-11,  avg # of iterations =  6.5

     negative rho (up, down):  8.501E-04 0.000E+00

     total cpu time spent up to now is      599.8 secs

     total energy              =    -471.89099902 Ry
     estimated scf accuracy    <          2.1E-09 Ry

     iteration # 16     ecut=    40.00 Ry     beta= 0.70
     Davidson diagonalization with overlap
     ethr =  4.97E-12,  avg # of iterations =  3.0

     negative rho (up, down):  8.500E-04 0.000E+00

     total cpu time spent up to now is      603.0 secs

     End of self-consistent calculation

          k = 0.0000 0.0000 0.0000 (  5509 PWs)   bands (ev):

   -55.3321 -55.2598 -31.8547 -31.4737 -31.4142 -31.4008 -31.3588 -31.3500
   -19.7228 -19.6116  -9.9016  -7.6799  -6.6903  -3.2096  -3.0987  -2.8353
    -2.6764  -1.8117  -0.1434  -0.0360   2.1157   2.2415   2.2987   2.4468
     2.5685

          k = 0.0000 0.2887 0.0000 (  5504 PWs)   bands (ev):

   -55.2965 -55.2425 -31.7890 -31.6613 -31.5382 -31.4739 -31.4295 -31.3816
   -19.5381 -19.4121  -9.1504  -7.3869  -7.1062  -4.0264  -3.5661  -3.0537
    -2.8565  -1.7551  -1.3384  -0.5312   1.2313   2.9349   3.2106   3.2549
     3.6776

          k = 0.0000-0.5773 0.0000 (  5552 PWs)   bands (ev):

   -55.2548 -55.2311 -31.8838 -31.8096 -31.5759 -31.5304 -31.4659 -31.4134
   -19.3601 -19.2118  -8.3659  -7.2320  -7.1766  -5.0359  -4.4213  -3.1962
    -2.9795  -2.3662  -1.1439  -0.5580   0.4091   3.8057   4.2238   4.5782
     4.6356

          k = 0.2500 0.1443 0.0000 (  5504 PWs)   bands (ev):

   -55.2967 -55.2427 -31.7917 -31.6638 -31.5403 -31.4641 -31.4330 -31.3760
   -19.5365 -19.4077  -9.2037  -7.4381  -6.9913  -3.9687  -3.6228  -3.0948
    -2.8630  -1.7686  -1.4523  -0.4558   1.1518   3.0453   3.1901   3.2849
     3.6865

          k = 0.2500 0.4330 0.0000 (  5528 PWs)   bands (ev):

   -55.2551 -55.2311 -31.7987 -31.7605 -31.6478 -31.5187 -31.5110 -31.4444
   -19.3564 -19.2055  -8.3555  -7.2607  -7.2381  -4.4523  -4.1366  -3.5047
    -3.3516  -2.3032  -1.6292  -1.2002   2.3666   2.4824   3.8971   4.2569
     4.3509

          k = 0.2500-0.4330 0.0000 (  5528 PWs)   bands (ev):

   -55.2554 -55.2306 -31.7967 -31.7592 -31.6426 -31.5296 -31.5247 -31.4328
   -19.3571 -19.2205  -8.3409  -7.2512  -7.0862  -4.4563  -4.2873  -3.5666
    -3.3755  -2.1046  -1.6514  -1.2168   2.4366   2.4495   3.9725   4.2194
     4.3127

          k = 0.2500-0.1443 0.0000 (  5504 PWs)   bands (ev):

   -55.2967 -55.2423 -31.7892 -31.6593 -31.5381 -31.4745 -31.4273 -31.3854
   -19.5369 -19.4210  -9.1511  -7.3941  -7.0150  -4.0061  -3.5656  -3.0688
    -2.9552  -1.7358  -1.3331  -0.5339   1.2365   2.9418   3.1964   3.2729
     3.6611

          k =-0.5000-0.2887 0.0000 (  5552 PWs)   bands (ev):

   -55.2553 -55.2313 -31.8849 -31.8128 -31.5733 -31.5216 -31.4699 -31.4076
   -19.3561 -19.2016  -8.4556  -7.4096  -7.0697  -4.7717  -4.3051  -3.2456
    -3.0397  -2.6338  -1.2196  -0.4886   0.2995   3.8023   4.2209   4.6283
     4.6337

          k =-0.5000-0.0000 0.0000 (  5528 PWs)   bands (ev):

   -55.2556 -55.2307 -31.8016 -31.7537 -31.6465 -31.5281 -31.5136 -31.4380
   -19.3549 -19.2153  -8.3569  -7.2671  -7.1234  -4.4463  -4.2173  -3.5122
    -3.3841  -2.2988  -1.6273  -1.1872   2.3521   2.5124   3.8811   4.2393
     4.3535

          k =-0.5000-0.8660 0.0000 (  5552 PWs)   bands (ev):

   -55.2557 -55.2302 -31.8866 -31.8005 -31.5848 -31.5321 -31.4580 -31.4174
   -19.3574 -19.2310  -8.3681  -7.2334  -6.9466  -5.0764  -4.5277  -3.2055
    -3.0460  -2.3545  -1.1317  -0.5568   0.4089   3.7702   4.2314   4.5683
     4.6485

     the Fermi energy is     2.4018 ev

!    total energy              =    -471.89099902 Ry
     total all-electron energy =     -3795.194688 Ry
     estimated scf accuracy    <          4.2E-10 Ry
     smearing contrib. (-TS)   =      -0.00538189 Ry
     internal energy E=F+TS    =    -471.88561713 Ry

     The total energy is F=E-TS. E is the sum of the following terms:
     one-electron contribution =   -3285.49332661 Ry
     hartree contribution      =    1648.92456837 Ry
     xc contribution           =     -58.29348489 Ry
     ewald contribution        =    1378.96257518 Ry
     one-center paw contrib.   =    -155.98594919 Ry

     convergence has been achieved in  16 iterations

     negative rho (up, down):  8.500E-04 0.000E+00

     Forces acting on atoms (cartesian axes, Ry/au):

     atom    1 type  1   force =    -0.00305312   -0.00770433    0.00293444
     atom    2 type  1   force =     0.00034288    0.00315605    0.00408837
     atom    3 type  2   force =    -0.00173097    0.00418149    0.00270453
     atom    4 type  3   force =    -0.00870795   -0.01345436    0.00512981
     atom    5 type  3   force =     0.00871016    0.00370628   -0.00774564
     atom    6 type  4   force =    -0.00368512   -0.00024415   -0.00681024
     atom    7 type  4   force =     0.00812412    0.01035902   -0.00030128

     Total force =     0.028250     Total SCF correction =     0.000073
     Energy error            =      1.6E-03 Ry
     Gradient error          =      1.3E-02 Ry/Bohr

     number of scf cycles    =  31
     number of bfgs steps    =  30

     energy             old  =    -471.8894148712 Ry
     energy             new  =    -471.8909990179 Ry

     CASE: energy            _new < energy            _old

     new trust radius        =       0.1656179870 bohr
     new conv_thr            =       0.0000000013 Ry


ATOMIC_POSITIONS (angstrom)
Ti              -0.2825927524        1.8197736805        3.1215887087
Ti               1.2312044556        0.9113981209        5.4260317014
C                2.7697621847        0.0290661997        4.2766110297
O               -0.3014783623        1.8364423421        6.7067648178
O                1.2159125162        0.9043121060        1.8956836491
H                1.3311068955        0.9253544979        0.9335965128
H               -0.5445649374        1.5197130529        7.6132035804



     Writing config-only to output data dir ./tmp/ti2coh2.save/ :
     XML data file
     NEW-OLD atomic charge density approx. for the potential

     Check: negative core charge=   -0.000005

     negative rho (up, down):  8.234E-04 0.000E+00

     total cpu time spent up to now is      603.8 secs

     Self-consistent Calculation

     iteration #  1     ecut=    40.00 Ry     beta= 0.70
     Davidson diagonalization with overlap
     ethr =  1.00E-06,  avg # of iterations = 15.0

     negative rho (up, down):  7.659E-04 0.000E+00

     total cpu time spent up to now is      606.8 secs

     total energy              =    -471.89168989 Ry
     estimated scf accuracy    <       0.00341074 Ry

     iteration #  2     ecut=    40.00 Ry     beta= 0.70
     Davidson diagonalization with overlap
     ethr =  8.12E-06,  avg # of iterations =  6.5

     negative rho (up, down):  1.033E-03 0.000E+00

     total cpu time spent up to now is      607.9 secs

     total energy              =    -471.88895758 Ry
     estimated scf accuracy    <       0.01791126 Ry

     iteration #  3     ecut=    40.00 Ry     beta= 0.70
     Davidson diagonalization with overlap
     ethr =  8.12E-06,  avg # of iterations = 14.3

     negative rho (up, down):  1.002E-03 0.000E+00

     total cpu time spent up to now is      609.3 secs

     total energy              =    -471.88961564 Ry
     estimated scf accuracy    <       0.05354656 Ry

     iteration #  4     ecut=    40.00 Ry     beta= 0.70
     Davidson diagonalization with overlap
     ethr =  8.12E-06,  avg # of iterations = 11.7

     negative rho (up, down):  9.517E-04 0.000E+00

     total cpu time spent up to now is      610.6 secs

     total energy              =    -471.89078420 Ry
     estimated scf accuracy    <       0.03215404 Ry

     iteration #  5     ecut=    40.00 Ry     beta= 0.70
     Davidson diagonalization with overlap
     ethr =  8.12E-06,  avg # of iterations =  4.8

     negative rho (up, down):  8.947E-04 0.000E+00

     total cpu time spent up to now is      611.6 secs

     total energy              =    -471.89246574 Ry
     estimated scf accuracy    <       0.00036052 Ry

     iteration #  6     ecut=    40.00 Ry     beta= 0.70
     Davidson diagonalization with overlap
     ethr =  8.58E-07,  avg # of iterations =  7.6

     negative rho (up, down):  8.378E-04 0.000E+00

     total cpu time spent up to now is      612.7 secs

     total energy              =    -471.89259342 Ry
     estimated scf accuracy    <       0.00028497 Ry

     iteration #  7     ecut=    40.00 Ry     beta= 0.70
     Davidson diagonalization with overlap
     ethr =  6.78E-07,  avg # of iterations =  2.1

     negative rho (up, down):  8.135E-04 0.000E+00

     total cpu time spent up to now is      613.5 secs

     total energy              =    -471.89263065 Ry
     estimated scf accuracy    <       0.00010668 Ry

     iteration #  8     ecut=    40.00 Ry     beta= 0.70
     Davidson diagonalization with overlap
     ethr =  2.54E-07,  avg # of iterations =  3.1

     negative rho (up, down):  8.062E-04 0.000E+00

     total cpu time spent up to now is      614.3 secs

     total energy              =    -471.89264032 Ry
     estimated scf accuracy    <       0.00004568 Ry

     iteration #  9     ecut=    40.00 Ry     beta= 0.70
     Davidson diagonalization with overlap
     ethr =  1.09E-07,  avg # of iterations =  2.2

     negative rho (up, down):  8.064E-04 0.000E+00

     total cpu time spent up to now is      615.2 secs

     total energy              =    -471.89264258 Ry
     estimated scf accuracy    <       0.00000681 Ry

     iteration # 10     ecut=    40.00 Ry     beta= 0.70
     Davidson diagonalization with overlap
     ethr =  1.62E-08,  avg # of iterations =  7.9

     negative rho (up, down):  8.097E-04 0.000E+00

     total cpu time spent up to now is      616.2 secs

     total energy              =    -471.89264433 Ry
     estimated scf accuracy    <       0.00000108 Ry

     iteration # 11     ecut=    40.00 Ry     beta= 0.70
     Davidson diagonalization with overlap
     ethr =  2.58E-09,  avg # of iterations =  4.9

     negative rho (up, down):  8.118E-04 0.000E+00

     total cpu time spent up to now is      617.1 secs

     total energy              =    -471.89264460 Ry
     estimated scf accuracy    <       0.00000031 Ry

     iteration # 12     ecut=    40.00 Ry     beta= 0.70
     Davidson diagonalization with overlap
     ethr =  7.27E-10,  avg # of iterations =  3.7

     negative rho (up, down):  8.121E-04 0.000E+00

     total cpu time spent up to now is      618.0 secs

     total energy              =    -471.89264464 Ry
     estimated scf accuracy    <       0.00000002 Ry

     iteration # 13     ecut=    40.00 Ry     beta= 0.70
     Davidson diagonalization with overlap
     ethr =  4.22E-11,  avg # of iterations =  9.2

     negative rho (up, down):  8.123E-04 0.000E+00

     total cpu time spent up to now is      619.2 secs

     total energy              =    -471.89264465 Ry
     estimated scf accuracy    <       0.00000001 Ry

     iteration # 14     ecut=    40.00 Ry     beta= 0.70
     Davidson diagonalization with overlap
     ethr =  3.51E-11,  avg # of iterations =  1.5

     negative rho (up, down):  8.123E-04 0.000E+00

     total cpu time spent up to now is      620.0 secs

     total energy              =    -471.89264465 Ry
     estimated scf accuracy    <          5.7E-09 Ry

     iteration # 15     ecut=    40.00 Ry     beta= 0.70
     Davidson diagonalization with overlap
     ethr =  1.35E-11,  avg # of iterations =  3.3

     negative rho (up, down):  8.123E-04 0.000E+00

     total cpu time spent up to now is      620.8 secs

     End of self-consistent calculation

          k = 0.0000 0.0000 0.0000 (  5509 PWs)   bands (ev):

   -55.4047 -55.3350 -31.9189 -31.5476 -31.4891 -31.4758 -31.4374 -31.4240
   -19.8682 -19.6013  -9.9817  -7.8376  -6.8078  -3.2852  -3.2217  -2.9304
    -2.7627  -1.9352  -0.1099  -0.0463   2.0161   2.1992   2.2416   2.3445
     2.4752

          k = 0.0000 0.2887 0.0000 (  5504 PWs)   bands (ev):

   -55.3691 -55.3176 -31.8535 -31.7414 -31.6221 -31.5409 -31.5038 -31.4533
   -19.6862 -19.4068  -9.2210  -7.5251  -7.1955  -4.1456  -3.6558  -3.1772
    -2.9009  -1.8343  -1.4154  -0.5681   1.1645   2.8561   3.1454   3.1897
     3.5972

          k = 0.0000-0.5773 0.0000 (  5552 PWs)   bands (ev):

   -55.3267 -55.3068 -31.9604 -31.8951 -31.6363 -31.5968 -31.5469 -31.4855
   -19.5108 -19.2142  -8.4216  -7.3348  -7.2024  -5.1581  -4.5653  -3.3114
    -3.0343  -2.4714  -1.2312  -0.6053   0.3442   3.7544   4.1502   4.5322
     4.5668

          k = 0.2500 0.1443 0.0000 (  5504 PWs)   bands (ev):

   -55.3698 -55.3171 -31.8543 -31.7355 -31.6187 -31.5431 -31.5055 -31.4553
   -19.6852 -19.4053  -9.2608  -7.5533  -7.1036  -4.0974  -3.6928  -3.2396
    -2.9278  -1.8073  -1.4869  -0.4942   1.1148   2.9559   3.1501   3.1778
     3.5759

          k = 0.2500 0.4330 0.0000 (  5528 PWs)   bands (ev):

   -55.3284 -55.3052 -31.8727 -31.8384 -31.7191 -31.5971 -31.5799 -31.5184
   -19.5075 -19.2114  -8.3989  -7.3869  -7.2302  -4.5907  -4.2882  -3.6400
    -3.4236  -2.3240  -1.6926  -1.2638   2.3275   2.4268   3.8243   4.1691
     4.2748

          k = 0.2500-0.4330 0.0000 (  5528 PWs)   bands (ev):

   -55.3279 -55.3057 -31.8705 -31.8363 -31.7107 -31.5993 -31.5956 -31.5139
   -19.5081 -19.2174  -8.3897  -7.3873  -7.1505  -4.5923  -4.3766  -3.6644
    -3.4635  -2.2372  -1.7052  -1.2559   2.3805   2.4214   3.8982   4.1706
     4.2866

          k = 0.2500-0.1443 0.0000 (  5504 PWs)   bands (ev):

   -55.3696 -55.3173 -31.8539 -31.7308 -31.6124 -31.5506 -31.5013 -31.4645
   -19.6853 -19.4114  -9.2291  -7.5372  -7.1179  -4.1246  -3.6567  -3.2176
    -3.0379  -1.8051  -1.3761  -0.5292   1.1945   2.8759   3.1249   3.1831
     3.5869

          k =-0.5000-0.2887 0.0000 (  5552 PWs)   bands (ev):

   -55.3298 -55.3041 -31.9577 -31.8801 -31.6573 -31.5989 -31.5349 -31.4878
   -19.5080 -19.2108  -8.4847  -7.4331  -7.1251  -4.9594  -4.5145  -3.3809
    -3.0921  -2.6187  -1.2476  -0.5223   0.2601   3.6819   4.1667   4.5331
     4.5726

          k =-0.5000-0.0000 0.0000 (  5528 PWs)   bands (ev):

   -55.3294 -55.3044 -31.8670 -31.8233 -31.7169 -31.6126 -31.6003 -31.5042
   -19.5063 -19.2157  -8.4090  -7.3922  -7.1503  -4.5978  -4.3479  -3.6514
    -3.4485  -2.3496  -1.6821  -1.2198   2.3145   2.5013   3.7815   4.1631
     4.3107

          k =-0.5000-0.8660 0.0000 (  5552 PWs)   bands (ev):

   -55.3288 -55.3050 -31.9588 -31.8672 -31.6570 -31.6081 -31.5309 -31.4966
   -19.5087 -19.2234  -8.4360  -7.3625  -7.0341  -5.1576  -4.6393  -3.3531
    -3.1538  -2.4646  -1.1716  -0.5597   0.3706   3.6978   4.1626   4.5185
     4.5832

     the Fermi energy is     2.3535 ev

!    total energy              =    -471.89264465 Ry
     total all-electron energy =     -3795.196334 Ry
     estimated scf accuracy    <          9.9E-10 Ry
     smearing contrib. (-TS)   =      -0.00528628 Ry
     internal energy E=F+TS    =    -471.88735837 Ry

     The total energy is F=E-TS. E is the sum of the following terms:
     one-electron contribution =   -3286.84176252 Ry
     hartree contribution      =    1649.47306290 Ry
     xc contribution           =     -58.28308637 Ry
     ewald contribution        =    1379.75097256 Ry
     one-center paw contrib.   =    -155.98654494 Ry

     convergence has been achieved in  15 iterations

     negative rho (up, down):  8.123E-04 0.000E+00

     Forces acting on atoms (cartesian axes, Ry/au):

     atom    1 type  1   force =    -0.00453329   -0.01451381    0.01313362
     atom    2 type  1   force =     0.00130154    0.00640516    0.00115248
     atom    3 type  2   force =    -0.00780596    0.00770028    0.00155319
     atom    4 type  3   force =    -0.00568669   -0.02123497    0.02596689
     atom    5 type  3   force =     0.00598297    0.00568443   -0.00697236
     atom    6 type  4   force =    -0.00146369   -0.00028737   -0.01410156
     atom    7 type  4   force =     0.01220511    0.01624628   -0.02073226

     Total force =     0.053744     Total SCF correction =     0.000180
     Energy error            =      1.6E-03 Ry
     Gradient error          =      2.6E-02 Ry/Bohr

     number of scf cycles    =  32
     number of bfgs steps    =  31

     energy             old  =    -471.8909990179 Ry
     energy             new  =    -471.8926446534 Ry

     CASE: energy            _new < energy            _old

     new trust radius        =       0.0913621363 bohr
     new conv_thr            =       0.0000000016 Ry


ATOMIC_POSITIONS (angstrom)
Ti              -0.2789034437        1.8157227742        3.1127761686
Ti               1.2284467220        0.8981294534        5.4323500985
C                2.7725500787        0.0214866931        4.2753862562
O               -0.2945438762        1.8381051017        6.7249407801
O                1.2300942805        0.9018029028        1.8822985389
H                1.2898293161        0.9100808902        0.9135893244
H               -0.5281230774        1.5607321847        7.6321388333



     Writing config-only to output data dir ./tmp/ti2coh2.save/ :
     XML data file
     NEW-OLD atomic charge density approx. for the potential

     Check: negative core charge=   -0.000005

     negative rho (up, down):  8.063E-04 0.000E+00

     total cpu time spent up to now is      621.5 secs

     Self-consistent Calculation

     iteration #  1     ecut=    40.00 Ry     beta= 0.70
     Davidson diagonalization with overlap
     ethr =  1.00E-06,  avg # of iterations =  9.2

     negative rho (up, down):  7.748E-04 0.000E+00

     total cpu time spent up to now is      623.5 secs

     total energy              =    -471.89306480 Ry
     estimated scf accuracy    <       0.00180683 Ry

     iteration #  2     ecut=    40.00 Ry     beta= 0.70
     Davidson diagonalization with overlap
     ethr =  4.30E-06,  avg # of iterations = 10.0

     negative rho (up, down):  9.408E-04 0.000E+00

     total cpu time spent up to now is      624.9 secs

     total energy              =    -471.89139980 Ry
     estimated scf accuracy    <       0.03394134 Ry

     iteration #  3     ecut=    40.00 Ry     beta= 0.70
     Davidson diagonalization with overlap
     ethr =  4.30E-06,  avg # of iterations =  8.1

     negative rho (up, down):  1.002E-03 0.000E+00

     total cpu time spent up to now is      626.1 secs

     total energy              =    -471.89326385 Ry
     estimated scf accuracy    <       0.00706403 Ry

     iteration #  4     ecut=    40.00 Ry     beta= 0.70
     Davidson diagonalization with overlap
     ethr =  4.30E-06,  avg # of iterations =  5.3

     negative rho (up, down):  8.678E-04 0.000E+00

     total cpu time spent up to now is      627.1 secs

     total energy              =    -471.89373955 Ry
     estimated scf accuracy    <       0.00630874 Ry

     iteration #  5     ecut=    40.00 Ry     beta= 0.70
     Davidson diagonalization with overlap
     ethr =  4.30E-06,  avg # of iterations =  2.7

     negative rho (up, down):  8.228E-04 0.000E+00

     total cpu time spent up to now is      628.0 secs

     total energy              =    -471.89407460 Ry
     estimated scf accuracy    <       0.00033504 Ry

     iteration #  6     ecut=    40.00 Ry     beta= 0.70
     Davidson diagonalization with overlap
     ethr =  7.98E-07,  avg # of iterations =  3.0

     negative rho (up, down):  8.158E-04 0.000E+00

     total cpu time spent up to now is      628.9 secs

     total energy              =    -471.89412360 Ry
     estimated scf accuracy    <       0.00009167 Ry

     iteration #  7     ecut=    40.00 Ry     beta= 0.70
     Davidson diagonalization with overlap
     ethr =  2.18E-07,  avg # of iterations =  4.6

     negative rho (up, down):  8.011E-04 0.000E+00

     total cpu time spent up to now is      629.8 secs

     total energy              =    -471.89414652 Ry
     estimated scf accuracy    <       0.00005024 Ry

     iteration #  8     ecut=    40.00 Ry     beta= 0.70
     Davidson diagonalization with overlap
     ethr =  1.20E-07,  avg # of iterations =  2.1

     negative rho (up, down):  7.945E-04 0.000E+00

     total cpu time spent up to now is      630.7 secs

     total energy              =    -471.89415330 Ry
     estimated scf accuracy    <       0.00000812 Ry

     iteration #  9     ecut=    40.00 Ry     beta= 0.70
     Davidson diagonalization with overlap
     ethr =  1.93E-08,  avg # of iterations =  6.5

     negative rho (up, down):  7.953E-04 0.000E+00

     total cpu time spent up to now is      631.8 secs

     total energy              =    -471.89415506 Ry
     estimated scf accuracy    <       0.00000897 Ry

     iteration # 10     ecut=    40.00 Ry     beta= 0.70
     Davidson diagonalization with overlap
     ethr =  1.93E-08,  avg # of iterations =  1.4

     negative rho (up, down):  7.948E-04 0.000E+00

     total cpu time spent up to now is      632.7 secs

     total energy              =    -471.89415537 Ry
     estimated scf accuracy    <       0.00000066 Ry

     iteration # 11     ecut=    40.00 Ry     beta= 0.70
     Davidson diagonalization with overlap
     ethr =  1.57E-09,  avg # of iterations =  7.3

     negative rho (up, down):  7.946E-04 0.000E+00

     total cpu time spent up to now is      633.9 secs

     total energy              =    -471.89415576 Ry
     estimated scf accuracy    <       0.00000179 Ry

     iteration # 12     ecut=    40.00 Ry     beta= 0.70
     Davidson diagonalization with overlap
     ethr =  1.57E-09,  avg # of iterations =  1.2

     negative rho (up, down):  7.944E-04 0.000E+00

     total cpu time spent up to now is      637.2 secs

     total energy              =    -471.89415572 Ry
     estimated scf accuracy    <       0.00000057 Ry

     iteration # 13     ecut=    40.00 Ry     beta= 0.70
     Davidson diagonalization with overlap
     ethr =  1.35E-09,  avg # of iterations =  2.0

     negative rho (up, down):  7.942E-04 0.000E+00

     total cpu time spent up to now is      638.2 secs

     total energy              =    -471.89415576 Ry
     estimated scf accuracy    <       0.00000011 Ry

     iteration # 14     ecut=    40.00 Ry     beta= 0.70
     Davidson diagonalization with overlap
     ethr =  2.51E-10,  avg # of iterations =  6.3

     negative rho (up, down):  7.941E-04 0.000E+00

     total cpu time spent up to now is      639.2 secs

     total energy              =    -471.89415579 Ry
     estimated scf accuracy    <       0.00000002 Ry

     iteration # 15     ecut=    40.00 Ry     beta= 0.70
     Davidson diagonalization with overlap
     ethr =  5.82E-11,  avg # of iterations =  4.4

     negative rho (up, down):  7.941E-04 0.000E+00

     total cpu time spent up to now is      640.2 secs

     total energy              =    -471.89415579 Ry
     estimated scf accuracy    <       0.00000004 Ry

     iteration # 16     ecut=    40.00 Ry     beta= 0.70
     Davidson diagonalization with overlap
     ethr =  5.82E-11,  avg # of iterations =  1.7

     negative rho (up, down):  7.940E-04 0.000E+00

     total cpu time spent up to now is      641.1 secs

     total energy              =    -471.89415579 Ry
     estimated scf accuracy    <          9.2E-09 Ry

     iteration # 17     ecut=    40.00 Ry     beta= 0.70
     Davidson diagonalization with overlap
     ethr =  2.18E-11,  avg # of iterations =  3.0

     negative rho (up, down):  7.940E-04 0.000E+00

     total cpu time spent up to now is      642.1 secs

     End of self-consistent calculation

          k = 0.0000 0.0000 0.0000 (  5509 PWs)   bands (ev):

   -55.4171 -55.3507 -31.9217 -31.5623 -31.5037 -31.4840 -31.4516 -31.4378
   -19.8413 -19.6340  -9.9767  -7.8396  -6.8342  -3.2315  -3.1688  -2.8933
    -2.7158  -1.9432  -0.0872  -0.0213   1.9909   2.2099   2.2593   2.3421
     2.4607

          k = 0.0000 0.2887 0.0000 (  5504 PWs)   bands (ev):

   -55.3820 -55.3331 -31.8576 -31.7521 -31.6384 -31.5477 -31.5192 -31.4652
   -19.6592 -19.4432  -9.2124  -7.5181  -7.2047  -4.1133  -3.6263  -3.1432
    -2.8419  -1.8284  -1.4377  -0.5451   1.1555   2.8611   3.1464   3.1968
     3.5841

          k = 0.0000-0.5773 0.0000 (  5552 PWs)   bands (ev):

   -55.3402 -55.3219 -31.9676 -31.9082 -31.6427 -31.6038 -31.5638 -31.4975
   -19.4835 -19.2538  -8.4077  -7.3220  -7.1898  -5.1274  -4.5559  -3.2801
    -2.9809  -2.5011  -1.2562  -0.5890   0.3343   3.7433   4.1516   4.5233
     4.5613

          k = 0.2500 0.1443 0.0000 (  5504 PWs)   bands (ev):

   -55.3829 -55.3324 -31.8577 -31.7407 -31.6299 -31.5576 -31.5196 -31.4729
   -19.6585 -19.4409  -9.2468  -7.5457  -7.1240  -4.0714  -3.6589  -3.2027
    -2.8907  -1.7893  -1.4851  -0.4579   1.1302   2.9274   3.1565   3.1754
     3.5585

          k = 0.2500 0.4330 0.0000 (  5528 PWs)   bands (ev):

   -55.3423 -55.3199 -31.8791 -31.8457 -31.7267 -31.6102 -31.5951 -31.5315
   -19.4807 -19.2502  -8.3814  -7.3672  -7.2310  -4.5721  -4.2700  -3.6190
    -3.3881  -2.3199  -1.6807  -1.2666   2.3415   2.4216   3.7969   4.1687
     4.2421

          k = 0.2500-0.4330 0.0000 (  5528 PWs)   bands (ev):

   -55.3415 -55.3207 -31.8795 -31.8464 -31.7181 -31.6092 -31.6045 -31.5311
   -19.4810 -19.2555  -8.3725  -7.3682  -7.1656  -4.5720  -4.3417  -3.6344
    -3.4311  -2.2546  -1.6926  -1.2596   2.3698   2.4233   3.8656   4.1706
     4.2511

          k = 0.2500-0.1443 0.0000 (  5504 PWs)   bands (ev):

   -55.3825 -55.3327 -31.8577 -31.7389 -31.6266 -31.5605 -31.5174 -31.4775
   -19.6586 -19.4462  -9.2220  -7.5274  -7.1381  -4.0937  -3.6257  -3.1889
    -2.9859  -1.7949  -1.3870  -0.4963   1.1943   2.8707   3.1324   3.1812
     3.5750

          k =-0.5000-0.2887 0.0000 (  5552 PWs)   bands (ev):

   -55.3441 -55.3184 -31.9619 -31.8811 -31.6742 -31.6121 -31.5454 -31.5052
   -19.4815 -19.2487  -8.4635  -7.4043  -7.1292  -4.9743  -4.5072  -3.3465
    -3.0587  -2.6007  -1.2366  -0.4892   0.2760   3.6382   4.1743   4.5172
     4.5650

          k =-0.5000-0.0000 0.0000 (  5528 PWs)   bands (ev):

   -55.3434 -55.3190 -31.8702 -31.8277 -31.7252 -31.6305 -31.6177 -31.5158
   -19.4797 -19.2528  -8.3935  -7.3680  -7.1685  -4.5834  -4.3180  -3.6300
    -3.4151  -2.3448  -1.6681  -1.2176   2.3299   2.5074   3.7489   4.1694
     4.2839

          k =-0.5000-0.8660 0.0000 (  5552 PWs)   bands (ev):

   -55.3426 -55.3198 -31.9640 -31.8754 -31.6687 -31.6169 -31.5466 -31.5092
   -19.4818 -19.2595  -8.4244  -7.3431  -7.0572  -5.1214  -4.6170  -3.3281
    -3.1133  -2.4847  -1.1825  -0.5299   0.3692   3.6763   4.1655   4.5055
     4.5787

     the Fermi energy is     2.3577 ev

!    total energy              =    -471.89415579 Ry
     total all-electron energy =     -3795.197845 Ry
     estimated scf accuracy    <          2.7E-10 Ry
     smearing contrib. (-TS)   =      -0.00541273 Ry
     internal energy E=F+TS    =    -471.88874306 Ry

     The total energy is F=E-TS. E is the sum of the following terms:
     one-electron contribution =   -3274.08109132 Ry
     hartree contribution      =    1643.09044953 Ry
     xc contribution           =     -58.27451035 Ry
     ewald contribution        =    1373.36220994 Ry
     one-center paw contrib.   =    -155.98580087 Ry

     convergence has been achieved in  17 iterations

     negative rho (up, down):  7.940E-04 0.000E+00

     Forces acting on atoms (cartesian axes, Ry/au):

     atom    1 type  1   force =    -0.00281730   -0.01436835    0.01622156
     atom    2 type  1   force =     0.00457235    0.00873968    0.00021089
     atom    3 type  2   force =    -0.00937864    0.00742501    0.00202724
     atom    4 type  3   force =    -0.00146228   -0.01465989    0.00094726
     atom    5 type  3   force =     0.00364263    0.00503836   -0.00655380
     atom    6 type  4   force =    -0.00083060   -0.00028860   -0.01096390
     atom    7 type  4   force =     0.00627384    0.00811379   -0.00188926

     Total force =     0.035375     Total SCF correction =     0.000081
     Energy error            =      1.5E-03 Ry
     Gradient error          =      1.6E-02 Ry/Bohr

     number of scf cycles    =  33
     number of bfgs steps    =  32

     energy             old  =    -471.8926446534 Ry
     energy             new  =    -471.8941557931 Ry

     CASE: energy            _new < energy            _old

     new trust radius        =       0.1743714041 bohr
     new conv_thr            =       0.0000000015 Ry


ATOMIC_POSITIONS (angstrom)
Ti              -0.2658718642        1.7983830784        3.1102744847
Ti               1.2329570578        0.8903811282        5.4356306916
C                2.7778706674        0.0134307119        4.2719042972
O               -0.3290695481        1.8189024996        6.7244633842
O                1.2618703230        0.8998023913        1.8683837425
H                1.2351397678        0.8902700109        0.8880298969
H               -0.4935464037        1.6348901796        7.6747935028



     Writing config-only to output data dir ./tmp/ti2coh2.save/ :
     XML data file
     NEW-OLD atomic charge density approx. for the potential

     Check: negative core charge=   -0.000005

     negative rho (up, down):  7.994E-04 0.000E+00

     total cpu time spent up to now is      642.7 secs

     Self-consistent Calculation

     iteration #  1     ecut=    40.00 Ry     beta= 0.70
     Davidson diagonalization with overlap
     ethr =  1.00E-06,  avg # of iterations = 10.6

     negative rho (up, down):  7.768E-04 0.000E+00

     total cpu time spent up to now is      645.4 secs

     total energy              =    -471.89532673 Ry
     estimated scf accuracy    <       0.00230844 Ry

     iteration #  2     ecut=    40.00 Ry     beta= 0.70
     Davidson diagonalization with overlap
     ethr =  5.50E-06,  avg # of iterations =  7.1

     negative rho (up, down):  9.450E-04 0.000E+00

     total cpu time spent up to now is      646.5 secs

     total energy              =    -471.89344070 Ry
     estimated scf accuracy    <       0.02414946 Ry

     iteration #  3     ecut=    40.00 Ry     beta= 0.70
     Davidson diagonalization with overlap
     ethr =  5.50E-06,  avg # of iterations =  7.2

     negative rho (up, down):  9.003E-04 0.000E+00

     total cpu time spent up to now is      647.6 secs

     total energy              =    -471.89518755 Ry
     estimated scf accuracy    <       0.00540911 Ry

     iteration #  4     ecut=    40.00 Ry     beta= 0.70
     Davidson diagonalization with overlap
     ethr =  5.50E-06,  avg # of iterations = 11.0

     negative rho (up, down):  8.723E-04 0.000E+00

     total cpu time spent up to now is      648.8 secs

     total energy              =    -471.89382618 Ry
     estimated scf accuracy    <       0.05556238 Ry

     iteration #  5     ecut=    40.00 Ry     beta= 0.70
     Davidson diagonalization with overlap
     ethr =  5.50E-06,  avg # of iterations = 11.4

     negative rho (up, down):  8.255E-04 0.000E+00

     total cpu time spent up to now is      649.9 secs

     total energy              =    -471.89612331 Ry
     estimated scf accuracy    <       0.00017458 Ry

     iteration #  6     ecut=    40.00 Ry     beta= 0.70
     Davidson diagonalization with overlap
     ethr =  4.16E-07,  avg # of iterations =  8.9

     negative rho (up, down):  8.199E-04 0.000E+00

     total cpu time spent up to now is      650.9 secs

     total energy              =    -471.89615094 Ry
     estimated scf accuracy    <       0.00014372 Ry

     iteration #  7     ecut=    40.00 Ry     beta= 0.70
     Davidson diagonalization with overlap
     ethr =  3.42E-07,  avg # of iterations =  2.0

     negative rho (up, down):  8.033E-04 0.000E+00

     total cpu time spent up to now is      651.7 secs

     total energy              =    -471.89617255 Ry
     estimated scf accuracy    <       0.00008033 Ry

     iteration #  8     ecut=    40.00 Ry     beta= 0.70
     Davidson diagonalization with overlap
     ethr =  1.91E-07,  avg # of iterations =  1.6

     negative rho (up, down):  7.998E-04 0.000E+00

     total cpu time spent up to now is      652.5 secs

     total energy              =    -471.89617873 Ry
     estimated scf accuracy    <       0.00000748 Ry

     iteration #  9     ecut=    40.00 Ry     beta= 0.70
     Davidson diagonalization with overlap
     ethr =  1.78E-08,  avg # of iterations =  5.3

     negative rho (up, down):  7.971E-04 0.000E+00

     total cpu time spent up to now is      653.5 secs

     total energy              =    -471.89618062 Ry
     estimated scf accuracy    <       0.00000062 Ry

     iteration # 10     ecut=    40.00 Ry     beta= 0.70
     Davidson diagonalization with overlap
     ethr =  1.49E-09,  avg # of iterations =  6.1

     negative rho (up, down):  7.963E-04 0.000E+00

     total cpu time spent up to now is      654.5 secs

     total energy              =    -471.89618085 Ry
     estimated scf accuracy    <       0.00000046 Ry

     iteration # 11     ecut=    40.00 Ry     beta= 0.70
     Davidson diagonalization with overlap
     ethr =  1.09E-09,  avg # of iterations =  2.0

     negative rho (up, down):  7.962E-04 0.000E+00

     total cpu time spent up to now is      655.3 secs

     total energy              =    -471.89618088 Ry
     estimated scf accuracy    <       0.00000002 Ry

     iteration # 12     ecut=    40.00 Ry     beta= 0.70
     Davidson diagonalization with overlap
     ethr =  5.09E-11,  avg # of iterations =  7.5

     negative rho (up, down):  7.963E-04 0.000E+00

     total cpu time spent up to now is      656.4 secs

     total energy              =    -471.89618089 Ry
     estimated scf accuracy    <       0.00000003 Ry

     iteration # 13     ecut=    40.00 Ry     beta= 0.70
     Davidson diagonalization with overlap
     ethr =  5.09E-11,  avg # of iterations =  1.3

     negative rho (up, down):  7.963E-04 0.000E+00

     total cpu time spent up to now is      657.2 secs

     total energy              =    -471.89618089 Ry
     estimated scf accuracy    <          7.7E-09 Ry

     iteration # 14     ecut=    40.00 Ry     beta= 0.70
     Davidson diagonalization with overlap
     ethr =  1.84E-11,  avg # of iterations =  2.8

     negative rho (up, down):  7.962E-04 0.000E+00

     total cpu time spent up to now is      658.0 secs

     End of self-consistent calculation

          k = 0.0000 0.0000 0.0000 (  5509 PWs)   bands (ev):

   -55.4437 -55.3786 -31.9428 -31.5870 -31.5257 -31.5114 -31.4767 -31.4666
   -19.7454 -19.5831  -9.9824  -7.8215  -6.8357  -3.1571  -3.1058  -2.8379
    -2.6851  -2.0323  -0.0558  -0.0204   1.9310   2.2008   2.2488   2.3066
     2.4263

          k = 0.0000 0.2887 0.0000 (  5504 PWs)   bands (ev):

   -55.4089 -55.3608 -31.8793 -31.7726 -31.6610 -31.5742 -31.5461 -31.4941
   -19.5611 -19.3957  -9.2229  -7.4762  -7.1788  -4.0642  -3.6040  -3.0979
    -2.8181  -1.8438  -1.4719  -0.5282   1.1353   2.8235   3.0996   3.1769
     3.5574

          k = 0.0000-0.5773 0.0000 (  5552 PWs)   bands (ev):

   -55.3679 -55.3491 -31.9881 -31.9259 -31.6723 -31.6297 -31.5864 -31.5264
   -19.3826 -19.2100  -8.4207  -7.2675  -7.1145  -5.0906  -4.5725  -3.2403
    -2.9642  -2.5390  -1.2657  -0.5729   0.3046   3.7088   4.1368   4.5077
     4.5400

          k = 0.2500 0.1443 0.0000 (  5504 PWs)   bands (ev):

   -55.4097 -55.3601 -31.8788 -31.7646 -31.6558 -31.5826 -31.5453 -31.5003
   -19.5607 -19.3947  -9.2391  -7.4921  -7.1381  -4.0404  -3.6242  -3.1193
    -2.8414  -1.8056  -1.5055  -0.4779   1.1198   2.8586   3.1152   3.1613
     3.5288

          k = 0.2500 0.4330 0.0000 (  5528 PWs)   bands (ev):

   -55.3697 -55.3473 -31.9010 -31.8666 -31.7516 -31.6366 -31.6234 -31.5564
   -19.3804 -19.2081  -8.3872  -7.2991  -7.1703  -4.5270  -4.3034  -3.5728
    -3.3713  -2.3037  -1.6938  -1.2854   2.3154   2.4117   3.7546   4.1321
     4.2140

          k = 0.2500-0.4330 0.0000 (  5528 PWs)   bands (ev):

   -55.3686 -55.3486 -31.8990 -31.8679 -31.7411 -31.6360 -31.6305 -31.5586
   -19.3804 -19.2087  -8.3838  -7.2975  -7.1471  -4.5262  -4.3416  -3.5734
    -3.4123  -2.3277  -1.6984  -1.2519   2.3254   2.4319   3.7990   4.1575
     4.2541

          k = 0.2500-0.1443 0.0000 (  5504 PWs)   bands (ev):

   -55.4093 -55.3607 -31.8801 -31.7626 -31.6513 -31.5831 -31.5450 -31.5027
   -19.5607 -19.3963  -9.2345  -7.4868  -7.1298  -4.0459  -3.6043  -3.1380
    -2.9452  -1.8272  -1.4242  -0.4802   1.1653   2.8357   3.0980   3.1493
     3.5613

          k =-0.5000-0.2887 0.0000 (  5552 PWs)   bands (ev):

   -55.3711 -55.3459 -31.9846 -31.9072 -31.6970 -31.6372 -31.5701 -31.5332
   -19.3815 -19.2079  -8.4466  -7.3085  -7.0884  -5.0054  -4.5559  -3.2662
    -3.0021  -2.5664  -1.2496  -0.5080   0.2639   3.6186   4.1592   4.4897
     4.5435

          k =-0.5000-0.0000 0.0000 (  5528 PWs)   bands (ev):

   -55.3703 -55.3469 -31.8935 -31.8542 -31.7480 -31.6517 -31.6404 -31.5455
   -19.3797 -19.2077  -8.3971  -7.2981  -7.1436  -4.5349  -4.3287  -3.5767
    -3.3929  -2.3535  -1.6825  -1.2364   2.3039   2.4827   3.7167   4.1500
     4.2586

          k =-0.5000-0.8660 0.0000 (  5552 PWs)   bands (ev):

   -55.3692 -55.3483 -31.9853 -31.9011 -31.6887 -31.6393 -31.5755 -31.5345
   -19.3815 -19.2102  -8.4405  -7.2884  -7.0462  -5.0581  -4.6006  -3.2841
    -3.0875  -2.5532  -1.2015  -0.5229   0.3342   3.6683   4.1441   4.5034
     4.5523

     the Fermi energy is     2.3357 ev

!    total energy              =    -471.89618089 Ry
     total all-electron energy =     -3795.199870 Ry
     estimated scf accuracy    <          7.0E-10 Ry
     smearing contrib. (-TS)   =      -0.00538861 Ry
     internal energy E=F+TS    =    -471.89079228 Ry

     The total energy is F=E-TS. E is the sum of the following terms:
     one-electron contribution =   -3266.31854278 Ry
     hartree contribution      =    1639.19666059 Ry
     xc contribution           =     -58.24738866 Ry
     ewald contribution        =    1369.46436818 Ry
     one-center paw contrib.   =    -155.98588961 Ry

     convergence has been achieved in  14 iterations

     negative rho (up, down):  7.962E-04 0.000E+00

     Forces acting on atoms (cartesian axes, Ry/au):

     atom    1 type  1   force =    -0.00283026   -0.00919278    0.01322345
     atom    2 type  1   force =     0.00260684    0.00727634   -0.00062354
     atom    3 type  2   force =    -0.00805578    0.00533212    0.00325445
     atom    4 type  3   force =     0.00162010   -0.01291704    0.00707434
     atom    5 type  3   force =    -0.00119681    0.00193332   -0.01951753
     atom    6 type  4   force =     0.00119229    0.00020843    0.00797453
     atom    7 type  4   force =     0.00666362    0.00735960   -0.01138570

     Total force =     0.036473     Total SCF correction =     0.000105
     Energy error            =      2.0E-03 Ry
     Gradient error          =      2.0E-02 Ry/Bohr

     number of scf cycles    =  34
     number of bfgs steps    =  33

     energy             old  =    -471.8941557931 Ry
     energy             new  =    -471.8961808870 Ry

     CASE: energy            _new < energy            _old

     new trust radius        =       0.0530372301 bohr
     new conv_thr            =       0.0000000020 Ry


ATOMIC_POSITIONS (angstrom)
Ti              -0.2690846423        1.7744232897        3.1245332429
Ti               1.2397928268        0.9095223688        5.4390046276
C                2.7693986154        0.0207531575        4.2787677917
O               -0.3322171239        1.7979011144        6.7296982741
O                1.2731712632        0.8996749855        1.8522612015
H                1.2240144484        0.8884014148        0.8744483303
H               -0.4857253876        1.6553836694        7.6747665318



     Writing config-only to output data dir ./tmp/ti2coh2.save/ :
     XML data file
     NEW-OLD atomic charge density approx. for the potential

     Check: negative core charge=   -0.000005

     negative rho (up, down):  8.005E-04 0.000E+00

     total cpu time spent up to now is      658.7 secs

     Self-consistent Calculation

     iteration #  1     ecut=    40.00 Ry     beta= 0.70
     Davidson diagonalization with overlap
     ethr =  1.00E-06,  avg # of iterations =  9.8

     negative rho (up, down):  8.259E-04 0.000E+00

     total cpu time spent up to now is      660.9 secs

     total energy              =    -471.89654711 Ry
     estimated scf accuracy    <       0.00151289 Ry

     iteration #  2     ecut=    40.00 Ry     beta= 0.70
     Davidson diagonalization with overlap
     ethr =  3.60E-06,  avg # of iterations = 11.9

     negative rho (up, down):  1.175E-03 0.000E+00

     total cpu time spent up to now is      662.3 secs

     total energy              =    -471.89515182 Ry
     estimated scf accuracy    <       0.01252496 Ry

     iteration #  3     ecut=    40.00 Ry     beta= 0.70
     Davidson diagonalization with overlap
     c_bands:  1 eigenvalues not converged
     c_bands:  1 eigenvalues not converged
     ethr =  3.60E-06,  avg # of iterations = 16.6

     negative rho (up, down):  1.271E-03 0.000E+00

     total cpu time spent up to now is      663.8 secs

     total energy              =    -471.89527717 Ry
     estimated scf accuracy    <       0.03727971 Ry

     iteration #  4     ecut=    40.00 Ry     beta= 0.70
     Davidson diagonalization with overlap
     ethr =  3.60E-06,  avg # of iterations =  9.9

     negative rho (up, down):  1.063E-03 0.000E+00

     total cpu time spent up to now is      665.0 secs

     total energy              =    -471.89687411 Ry
     estimated scf accuracy    <       0.00327634 Ry

     iteration #  5     ecut=    40.00 Ry     beta= 0.70
     Davidson diagonalization with overlap
     ethr =  3.60E-06,  avg # of iterations =  2.0

     negative rho (up, down):  1.075E-03 0.000E+00

     total cpu time spent up to now is      665.8 secs

     total energy              =    -471.89713172 Ry
     estimated scf accuracy    <       0.00040037 Ry

     iteration #  6     ecut=    40.00 Ry     beta= 0.70
     Davidson diagonalization with overlap
     ethr =  9.53E-07,  avg # of iterations =  4.4

     negative rho (up, down):  9.150E-04 0.000E+00

     total cpu time spent up to now is      666.8 secs

     total energy              =    -471.89722037 Ry
     estimated scf accuracy    <       0.00085959 Ry

     iteration #  7     ecut=    40.00 Ry     beta= 0.70
     Davidson diagonalization with overlap
     ethr =  9.53E-07,  avg # of iterations =  1.7

     negative rho (up, down):  8.084E-04 0.000E+00

     total cpu time spent up to now is      667.6 secs

     total energy              =    -471.89732783 Ry
     estimated scf accuracy    <       0.00001777 Ry

     iteration #  8     ecut=    40.00 Ry     beta= 0.70
     Davidson diagonalization with overlap
     ethr =  4.23E-08,  avg # of iterations =  7.0

     negative rho (up, down):  7.770E-04 0.000E+00

     total cpu time spent up to now is      668.7 secs

     total energy              =    -471.89734842 Ry
     estimated scf accuracy    <       0.00001654 Ry

     iteration #  9     ecut=    40.00 Ry     beta= 0.70
     Davidson diagonalization with overlap
     ethr =  3.94E-08,  avg # of iterations =  2.0

     negative rho (up, down):  7.781E-04 0.000E+00

     total cpu time spent up to now is      672.0 secs

     total energy              =    -471.89734917 Ry
     estimated scf accuracy    <       0.00000247 Ry

     iteration # 10     ecut=    40.00 Ry     beta= 0.70
     Davidson diagonalization with overlap
     ethr =  5.89E-09,  avg # of iterations =  5.6

     negative rho (up, down):  7.788E-04 0.000E+00

     total cpu time spent up to now is      673.1 secs

     total energy              =    -471.89734987 Ry
     estimated scf accuracy    <       0.00000065 Ry

     iteration # 11     ecut=    40.00 Ry     beta= 0.70
     Davidson diagonalization with overlap
     ethr =  1.54E-09,  avg # of iterations =  3.7

     negative rho (up, down):  7.792E-04 0.000E+00

     total cpu time spent up to now is      674.1 secs

     total energy              =    -471.89734991 Ry
     estimated scf accuracy    <       0.00000039 Ry

     iteration # 12     ecut=    40.00 Ry     beta= 0.70
     Davidson diagonalization with overlap
     ethr =  9.38E-10,  avg # of iterations =  3.0

     negative rho (up, down):  7.792E-04 0.000E+00

     total cpu time spent up to now is      675.0 secs

     total energy              =    -471.89734995 Ry
     estimated scf accuracy    <       0.00000007 Ry

     iteration # 13     ecut=    40.00 Ry     beta= 0.70
     Davidson diagonalization with overlap
     ethr =  1.74E-10,  avg # of iterations =  5.8

     negative rho (up, down):  7.791E-04 0.000E+00

     total cpu time spent up to now is      676.2 secs

     total energy              =    -471.89734997 Ry
     estimated scf accuracy    <       0.00000007 Ry

     iteration # 14     ecut=    40.00 Ry     beta= 0.70
     Davidson diagonalization with overlap
     ethr =  1.73E-10,  avg # of iterations =  1.1

     negative rho (up, down):  7.791E-04 0.000E+00

     total cpu time spent up to now is      677.0 secs

     total energy              =    -471.89734997 Ry
     estimated scf accuracy    <       0.00000003 Ry

     iteration # 15     ecut=    40.00 Ry     beta= 0.70
     Davidson diagonalization with overlap
     ethr =  6.59E-11,  avg # of iterations =  2.1

     negative rho (up, down):  7.791E-04 0.000E+00

     total cpu time spent up to now is      678.0 secs

     total energy              =    -471.89734998 Ry
     estimated scf accuracy    <          3.8E-09 Ry

     iteration # 16     ecut=    40.00 Ry     beta= 0.70
     Davidson diagonalization with overlap
     ethr =  9.01E-12,  avg # of iterations =  3.6

     negative rho (up, down):  7.792E-04 0.000E+00

     total cpu time spent up to now is      678.9 secs

     total energy              =    -471.89734998 Ry
     estimated scf accuracy    <          2.1E-09 Ry

     iteration # 17     ecut=    40.00 Ry     beta= 0.70
     Davidson diagonalization with overlap
     ethr =  5.05E-12,  avg # of iterations =  4.7

     negative rho (up, down):  7.791E-04 0.000E+00

     total cpu time spent up to now is      679.8 secs

     End of self-consistent calculation

          k = 0.0000 0.0000 0.0000 (  5509 PWs)   bands (ev):

   -55.4156 -55.3481 -31.9170 -31.5527 -31.4941 -31.4821 -31.4456 -31.4355
   -19.6400 -19.5970  -9.9566  -7.7601  -6.7934  -3.0154  -2.9489  -2.7305
    -2.6187  -2.0722  -0.0574  -0.0365   1.9739   2.2193   2.2626   2.3329
     2.4363

          k = 0.0000 0.2887 0.0000 (  5504 PWs)   bands (ev):

   -55.3811 -55.3303 -31.8539 -31.7319 -31.6189 -31.5549 -31.5114 -31.4715
   -19.4505 -19.4156  -9.2006  -7.4082  -7.1315  -3.9360  -3.5318  -2.9486
    -2.8085  -1.8160  -1.4565  -0.4883   1.1663   2.8428   3.1303   3.1855
     3.5849

          k = 0.0000-0.5773 0.0000 (  5552 PWs)   bands (ev):

   -55.3414 -55.3174 -31.9525 -31.8753 -31.6616 -31.6099 -31.5397 -31.5040
   -19.2666 -19.2342  -8.4136  -7.1937  -7.0654  -4.9918  -4.5126  -3.1088
    -2.9529  -2.4890  -1.1953  -0.5214   0.3153   3.7050   4.1765   4.5287
     4.5712

          k = 0.2500 0.1443 0.0000 (  5504 PWs)   bands (ev):

   -55.3809 -55.3304 -31.8546 -31.7399 -31.6262 -31.5457 -31.5141 -31.4626
   -19.4503 -19.4158  -9.2078  -7.4119  -7.1169  -3.9227  -3.5518  -2.9160
    -2.7683  -1.8166  -1.5284  -0.5093   1.1179   2.8817   3.1575   3.1898
     3.5784

          k = 0.2500 0.4330 0.0000 (  5528 PWs)   bands (ev):

   -55.3412 -55.3175 -31.8700 -31.8320 -31.7245 -31.6047 -31.5976 -31.5210
   -19.2656 -19.2332  -8.3722  -7.1864  -7.1604  -4.3666  -4.2949  -3.4167
    -3.3424  -2.2758  -1.6758  -1.2567   2.2985   2.4450   3.7697   4.1571
     4.2555

          k = 0.2500-0.4330 0.0000 (  5528 PWs)   bands (ev):

   -55.3407 -55.3183 -31.8627 -31.8308 -31.7150 -31.6135 -31.6067 -31.5185
   -19.2652 -19.2327  -8.3730  -7.1741  -7.1547  -4.3673  -4.3292  -3.4108
    -3.3849  -2.3172  -1.6697  -1.2142   2.3161   2.4731   3.7929   4.1893
     4.3057

          k = 0.2500-0.1443 0.0000 (  5504 PWs)   bands (ev):

   -55.3808 -55.3308 -31.8554 -31.7345 -31.6193 -31.5498 -31.5131 -31.4681
   -19.4509 -19.4156  -9.2081  -7.4126  -7.1000  -3.9243  -3.5343  -2.9843
    -2.8500  -1.8305  -1.4441  -0.4881   1.1680   2.8627   3.1342   3.1725
     3.6047

          k =-0.5000-0.2887 0.0000 (  5552 PWs)   bands (ev):

   -55.3409 -55.3178 -31.9569 -31.8924 -31.6496 -31.6021 -31.5482 -31.4948
   -19.2667 -19.2347  -8.4221  -7.2207  -7.0484  -4.9139  -4.5093  -3.0778
    -2.9187  -2.5605  -1.2659  -0.5380   0.2602   3.7285   4.1734   4.5269
     4.5752

          k =-0.5000-0.0000 0.0000 (  5528 PWs)   bands (ev):

   -55.3404 -55.3185 -31.8725 -31.8354 -31.7172 -31.6027 -31.5934 -31.5263
   -19.2655 -19.2331  -8.3713  -7.1765  -7.1577  -4.3639  -4.3072  -3.4111
    -3.3598  -2.3402  -1.6718  -1.2367   2.2833   2.4579   3.7768   4.1829
     4.2815

          k =-0.5000-0.8660 0.0000 (  5552 PWs)   bands (ev):

   -55.3397 -55.3195 -31.9556 -31.8775 -31.6523 -31.6054 -31.5478 -31.4998
   -19.2669 -19.2340  -8.4241  -7.2007  -7.0252  -4.9606  -4.5236  -3.1434
    -2.9942  -2.5521  -1.1960  -0.5327   0.3299   3.7473   4.1650   4.5512
     4.5738

     the Fermi energy is     2.3385 ev

!    total energy              =    -471.89734998 Ry
     total all-electron energy =     -3795.201039 Ry
     estimated scf accuracy    <          2.0E-10 Ry
     smearing contrib. (-TS)   =      -0.00524266 Ry
     internal energy E=F+TS    =    -471.89210732 Ry

     The total energy is F=E-TS. E is the sum of the following terms:
     one-electron contribution =   -3263.43666778 Ry
     hartree contribution      =    1637.82725850 Ry
     xc contribution           =     -58.25657994 Ry
     ewald contribution        =    1367.95956429 Ry
     one-center paw contrib.   =    -155.98568240 Ry

     convergence has been achieved in  17 iterations

     negative rho (up, down):  7.791E-04 0.000E+00

     Forces acting on atoms (cartesian axes, Ry/au):

     atom    1 type  1   force =    -0.00267606    0.00228570   -0.00235887
     atom    2 type  1   force =    -0.00292569   -0.00055980    0.00267234
     atom    3 type  2   force =    -0.00133625   -0.00085613    0.00312058
     atom    4 type  3   force =     0.00637184   -0.00269961   -0.01748959
     atom    5 type  3   force =    -0.00384292   -0.00081081   -0.00588829
     atom    6 type  4   force =     0.00178863    0.00063350    0.00721660
     atom    7 type  4   force =     0.00262044    0.00200714    0.01272722

     Total force =     0.026051     Total SCF correction =     0.000055
     Energy error            =      1.2E-03 Ry
     Gradient error          =      1.7E-02 Ry/Bohr

     number of scf cycles    =  35
     number of bfgs steps    =  34

     energy             old  =    -471.8961808870 Ry
     energy             new  =    -471.8973499773 Ry

     CASE: energy            _new < energy            _old

     new trust radius        =       0.1166819062 bohr
     new conv_thr            =       0.0000000012 Ry


ATOMIC_POSITIONS (angstrom)
Ti              -0.2695299823        1.7611807466        3.1266417353
Ti               1.2339140896        0.9041347554        5.4333509443
C                2.7662446756        0.0144948030        4.2835078136
O               -0.3157986968        1.7991961541        6.7187347818
O                1.2745796499        0.8923244978        1.8521345431
H                1.1815368892        0.8693762986        0.8720630056
H               -0.4515966252        1.7053527445        7.6870471764



     Writing config-only to output data dir ./tmp/ti2coh2.save/ :
     XML data file
     NEW-OLD atomic charge density approx. for the potential

     Check: negative core charge=   -0.000005

     negative rho (up, down):  7.846E-04 0.000E+00

     total cpu time spent up to now is      680.5 secs

     Self-consistent Calculation

     iteration #  1     ecut=    40.00 Ry     beta= 0.70
     Davidson diagonalization with overlap
     ethr =  1.00E-06,  avg # of iterations =  8.4

     negative rho (up, down):  7.944E-04 0.000E+00

     total cpu time spent up to now is      682.4 secs

     total energy              =    -471.89727875 Ry
     estimated scf accuracy    <       0.00087317 Ry

     iteration #  2     ecut=    40.00 Ry     beta= 0.70
     Davidson diagonalization with overlap
     c_bands:  1 eigenvalues not converged
     ethr =  2.08E-06,  avg # of iterations = 12.2

     negative rho (up, down):  8.664E-04 0.000E+00

     total cpu time spent up to now is      683.9 secs

     total energy              =    -471.89597793 Ry
     estimated scf accuracy    <       0.01866530 Ry

     iteration #  3     ecut=    40.00 Ry     beta= 0.70
     Davidson diagonalization with overlap
     c_bands:  1 eigenvalues not converged
     c_bands:  1 eigenvalues not converged
     c_bands:  1 eigenvalues not converged
     ethr =  2.08E-06,  avg # of iterations = 15.5

     negative rho (up, down):  8.745E-04 0.000E+00

     total cpu time spent up to now is      685.3 secs

     total energy              =    -471.89696020 Ry
     estimated scf accuracy    <       0.00708366 Ry

     iteration #  4     ecut=    40.00 Ry     beta= 0.70
     Davidson diagonalization with overlap
     ethr =  2.08E-06,  avg # of iterations = 12.5

     negative rho (up, down):  8.607E-04 0.000E+00

     total cpu time spent up to now is      686.4 secs

     total energy              =    -471.89720095 Ry
     estimated scf accuracy    <       0.00646848 Ry

     iteration #  5     ecut=    40.00 Ry     beta= 0.70
     Davidson diagonalization with overlap
     ethr =  2.08E-06,  avg # of iterations =  5.9

     negative rho (up, down):  8.328E-04 0.000E+00

     total cpu time spent up to now is      687.4 secs

     total energy              =    -471.89753353 Ry
     estimated scf accuracy    <       0.00080053 Ry

     iteration #  6     ecut=    40.00 Ry     beta= 0.70
     Davidson diagonalization with overlap
     ethr =  1.91E-06,  avg # of iterations =  1.7

     negative rho (up, down):  8.014E-04 0.000E+00

     total cpu time spent up to now is      688.2 secs

     total energy              =    -471.89764368 Ry
     estimated scf accuracy    <       0.00008850 Ry

     iteration #  7     ecut=    40.00 Ry     beta= 0.70
     Davidson diagonalization with overlap
     ethr =  2.11E-07,  avg # of iterations =  4.4

     negative rho (up, down):  7.962E-04 0.000E+00

     total cpu time spent up to now is      689.2 secs

     total energy              =    -471.89766596 Ry
     estimated scf accuracy    <       0.00000743 Ry

     iteration #  8     ecut=    40.00 Ry     beta= 0.70
     Davidson diagonalization with overlap
     ethr =  1.77E-08,  avg # of iterations =  7.1

     negative rho (up, down):  7.962E-04 0.000E+00

     total cpu time spent up to now is      690.3 secs

     total energy              =    -471.89766932 Ry
     estimated scf accuracy    <       0.00000215 Ry

     iteration #  9     ecut=    40.00 Ry     beta= 0.70
     Davidson diagonalization with overlap
     ethr =  5.13E-09,  avg # of iterations =  4.7

     negative rho (up, down):  7.961E-04 0.000E+00

     total cpu time spent up to now is      691.2 secs

     total energy              =    -471.89766958 Ry
     estimated scf accuracy    <       0.00000073 Ry

     iteration # 10     ecut=    40.00 Ry     beta= 0.70
     Davidson diagonalization with overlap
     ethr =  1.74E-09,  avg # of iterations =  5.5

     negative rho (up, down):  7.964E-04 0.000E+00

     total cpu time spent up to now is      692.2 secs

     total energy              =    -471.89766976 Ry
     estimated scf accuracy    <       0.00000010 Ry

     iteration # 11     ecut=    40.00 Ry     beta= 0.70
     Davidson diagonalization with overlap
     ethr =  2.37E-10,  avg # of iterations =  5.6

     negative rho (up, down):  7.964E-04 0.000E+00

     total cpu time spent up to now is      693.3 secs

     total energy              =    -471.89766978 Ry
     estimated scf accuracy    <       0.00000004 Ry

     iteration # 12     ecut=    40.00 Ry     beta= 0.70
     Davidson diagonalization with overlap
     ethr =  1.03E-10,  avg # of iterations =  2.8

     negative rho (up, down):  7.964E-04 0.000E+00

     total cpu time spent up to now is      694.1 secs

     total energy              =    -471.89766978 Ry
     estimated scf accuracy    <          8.7E-09 Ry

     iteration # 13     ecut=    40.00 Ry     beta= 0.70
     Davidson diagonalization with overlap
     ethr =  2.06E-11,  avg # of iterations =  5.1

     negative rho (up, down):  7.964E-04 0.000E+00

     total cpu time spent up to now is      695.2 secs

     total energy              =    -471.89766979 Ry
     estimated scf accuracy    <          2.3E-09 Ry

     iteration # 14     ecut=    40.00 Ry     beta= 0.70
     Davidson diagonalization with overlap
     ethr =  5.57E-12,  avg # of iterations =  3.8

     negative rho (up, down):  7.964E-04 0.000E+00

     total cpu time spent up to now is      696.1 secs

     End of self-consistent calculation

          k = 0.0000 0.0000 0.0000 (  5509 PWs)   bands (ev):

   -55.4208 -55.3513 -31.9254 -31.5550 -31.4996 -31.4866 -31.4467 -31.4411
   -19.5741 -19.5398  -9.9598  -7.7349  -6.7675  -3.0024  -2.9578  -2.7166
    -2.6284  -2.0794  -0.0770  -0.0522   1.9593   2.2093   2.2408   2.3157
     2.4384

          k = 0.0000 0.2887 0.0000 (  5504 PWs)   bands (ev):

   -55.3861 -55.3335 -31.8622 -31.7376 -31.6222 -31.5607 -31.5138 -31.4745
   -19.3827 -19.3581  -9.2108  -7.3760  -7.0970  -3.9256  -3.5231  -2.9478
    -2.8011  -1.8281  -1.4723  -0.5088   1.1482   2.8314   3.1077   3.1707
     3.5794

          k = 0.0000-0.5773 0.0000 (  5552 PWs)   bands (ev):

   -55.3465 -55.3205 -31.9593 -31.8813 -31.6669 -31.6168 -31.5413 -31.5069
   -19.1995 -19.1744  -8.4295  -7.1553  -7.0189  -4.9803  -4.5146  -3.1069
    -2.9445  -2.4920  -1.2035  -0.5359   0.2923   3.7058   4.1689   4.5217
     4.5689

          k = 0.2500 0.1443 0.0000 (  5504 PWs)   bands (ev):

   -55.3859 -55.3337 -31.8627 -31.7442 -31.6267 -31.5532 -31.5163 -31.4681
   -19.3826 -19.3576  -9.2142  -7.3822  -7.0903  -3.9211  -3.5339  -2.9159
    -2.7776  -1.8353  -1.5164  -0.5253   1.1196   2.8530   3.1229   3.1734
     3.5812

          k = 0.2500 0.4330 0.0000 (  5528 PWs)   bands (ev):

   -55.3461 -55.3208 -31.8748 -31.8358 -31.7312 -31.6117 -31.6047 -31.5208
   -19.1980 -19.1730  -8.3901  -7.1491  -7.1157  -4.3594  -4.3004  -3.4124
    -3.3369  -2.2781  -1.6919  -1.2554   2.2880   2.4408   3.7637   4.1471
     4.2674

          k = 0.2500-0.4330 0.0000 (  5528 PWs)   bands (ev):

   -55.3453 -55.3218 -31.8722 -31.8385 -31.7225 -31.6166 -31.6039 -31.5230
   -19.1977 -19.1727  -8.3889  -7.1415  -7.1104  -4.3602  -4.3212  -3.4031
    -3.3730  -2.3262  -1.6854  -1.2277   2.2886   2.4595   3.7862   4.1764
     4.3047

          k = 0.2500-0.1443 0.0000 (  5504 PWs)   bands (ev):

   -55.3856 -55.3342 -31.8637 -31.7431 -31.6241 -31.5527 -31.5163 -31.4687
   -19.3827 -19.3580  -9.2162  -7.3827  -7.0727  -3.9202  -3.5251  -2.9708
    -2.8306  -1.8507  -1.4629  -0.5199   1.1479   2.8512   3.1169   3.1537
     3.6042

          k =-0.5000-0.2887 0.0000 (  5552 PWs)   bands (ev):

   -55.3456 -55.3213 -31.9630 -31.8940 -31.6558 -31.6100 -31.5502 -31.4998
   -19.1996 -19.1735  -8.4327  -7.1775  -7.0205  -4.9316  -4.5018  -3.0784
    -2.9238  -2.5459  -1.2532  -0.5520   0.2647   3.7348   4.1625   4.5249
     4.5707

          k =-0.5000-0.0000 0.0000 (  5528 PWs)   bands (ev):

   -55.3449 -55.3222 -31.8792 -31.8428 -31.7225 -31.6047 -31.5968 -31.5307
   -19.1979 -19.1723  -8.3862  -7.1503  -7.1143  -4.3530  -4.3054  -3.4059
    -3.3517  -2.3469  -1.6880  -1.2428   2.2725   2.4402   3.7861   4.1766
     4.2910

          k =-0.5000-0.8660 0.0000 (  5552 PWs)   bands (ev):

   -55.3439 -55.3234 -31.9637 -31.8891 -31.6508 -31.6093 -31.5549 -31.5001
   -19.1993 -19.1735  -8.4357  -7.1700  -6.9938  -4.9495  -4.5127  -3.1294
    -2.9776  -2.5655  -1.2164  -0.5628   0.3126   3.7723   4.1513   4.5493
     4.5729

     the Fermi energy is     2.3242 ev

!    total energy              =    -471.89766979 Ry
     total all-electron energy =     -3795.201359 Ry
     estimated scf accuracy    <          5.7E-10 Ry
     smearing contrib. (-TS)   =      -0.00518858 Ry
     internal energy E=F+TS    =    -471.89248121 Ry

     The total energy is F=E-TS. E is the sum of the following terms:
     one-electron contribution =   -3267.02546088 Ry
     hartree contribution      =    1639.62274381 Ry
     xc contribution           =     -58.24318364 Ry
     ewald contribution        =    1369.73962510 Ry
     one-center paw contrib.   =    -155.98620560 Ry

     convergence has been achieved in  14 iterations

     negative rho (up, down):  7.964E-04 0.000E+00

     Forces acting on atoms (cartesian axes, Ry/au):

     atom    1 type  1   force =    -0.00192683    0.00599725   -0.00404598
     atom    2 type  1   force =     0.00052722   -0.00034839    0.00829807
     atom    3 type  2   force =    -0.00135308   -0.00216566   -0.00171032
     atom    4 type  3   force =    -0.00022625   -0.00598562    0.00798547
     atom    5 type  3   force =    -0.00682589   -0.00239797   -0.01441408
     atom    6 type  4   force =     0.00410806    0.00128083    0.01656749
     atom    7 type  4   force =     0.00569677    0.00361956   -0.01268065

     Total force =     0.031526     Total SCF correction =     0.000048
     Energy error            =      3.2E-04 Ry
     Gradient error          =      1.7E-02 Ry/Bohr

     number of scf cycles    =  36
     number of bfgs steps    =  35

     energy             old  =    -471.8973499773 Ry
     energy             new  =    -471.8976697869 Ry

     CASE: energy            _new < energy            _old

     new trust radius        =       0.0439221078 bohr
     new conv_thr            =       0.0000000003 Ry


ATOMIC_POSITIONS (angstrom)
Ti              -0.2749645116        1.7673831774        3.1273962551
Ti               1.2319252609        0.9058391200        5.4346173731
C                2.7630745438        0.0163196206        4.2859841582
O               -0.3054484848        1.7990366399        6.7137112654
O                1.2640152514        0.8945380120        1.8562501392
H                1.1983284174        0.8755164950        0.8820042029
H               -0.4575804772        1.6874269353        7.6735166060



     Writing config-only to output data dir ./tmp/ti2coh2.save/ :
     XML data file
     NEW-OLD atomic charge density approx. for the potential

     Check: negative core charge=   -0.000005

     negative rho (up, down):  7.897E-04 0.000E+00

     total cpu time spent up to now is      696.8 secs

     Self-consistent Calculation

     iteration #  1     ecut=    40.00 Ry     beta= 0.70
     Davidson diagonalization with overlap
     ethr =  1.00E-06,  avg # of iterations =  6.9

     negative rho (up, down):  7.940E-04 0.000E+00

     total cpu time spent up to now is      698.5 secs

     total energy              =    -471.89791414 Ry
     estimated scf accuracy    <       0.00029032 Ry

     iteration #  2     ecut=    40.00 Ry     beta= 0.70
     Davidson diagonalization with overlap
     ethr =  6.91E-07,  avg # of iterations =  6.2

     negative rho (up, down):  7.941E-04 0.000E+00

     total cpu time spent up to now is      699.8 secs

     total energy              =    -471.89751877 Ry
     estimated scf accuracy    <       0.00565253 Ry

     iteration #  3     ecut=    40.00 Ry     beta= 0.70
     Davidson diagonalization with overlap
     ethr =  6.91E-07,  avg # of iterations =  4.9

     negative rho (up, down):  7.918E-04 0.000E+00

     total cpu time spent up to now is      700.8 secs

     total energy              =    -471.89795812 Ry
     estimated scf accuracy    <       0.00061840 Ry

     iteration #  4     ecut=    40.00 Ry     beta= 0.70
     Davidson diagonalization with overlap
     ethr =  6.91E-07,  avg # of iterations =  2.5

     negative rho (up, down):  7.935E-04 0.000E+00

     total cpu time spent up to now is      701.7 secs

     total energy              =    -471.89799089 Ry
     estimated scf accuracy    <       0.00030000 Ry

     iteration #  5     ecut=    40.00 Ry     beta= 0.70
     Davidson diagonalization with overlap
     ethr =  6.91E-07,  avg # of iterations =  1.2

     negative rho (up, down):  7.955E-04 0.000E+00

     total cpu time spent up to now is      702.5 secs

     total energy              =    -471.89800254 Ry
     estimated scf accuracy    <       0.00029529 Ry

     iteration #  6     ecut=    40.00 Ry     beta= 0.70
     Davidson diagonalization with overlap
     ethr =  6.91E-07,  avg # of iterations =  2.0

     negative rho (up, down):  7.893E-04 0.000E+00

     total cpu time spent up to now is      703.3 secs

     total energy              =    -471.89803030 Ry
     estimated scf accuracy    <       0.00017933 Ry

     iteration #  7     ecut=    40.00 Ry     beta= 0.70
     Davidson diagonalization with overlap
     ethr =  4.27E-07,  avg # of iterations =  1.1

     negative rho (up, down):  7.872E-04 0.000E+00

     total cpu time spent up to now is      706.7 secs

     total energy              =    -471.89804103 Ry
     estimated scf accuracy    <       0.00000315 Ry

     iteration #  8     ecut=    40.00 Ry     beta= 0.70
     Davidson diagonalization with overlap
     ethr =  7.49E-09,  avg # of iterations =  6.8

     negative rho (up, down):  7.869E-04 0.000E+00

     total cpu time spent up to now is      708.0 secs

     total energy              =    -471.89804300 Ry
     estimated scf accuracy    <       0.00000482 Ry

     iteration #  9     ecut=    40.00 Ry     beta= 0.70
     Davidson diagonalization with overlap
     ethr =  7.49E-09,  avg # of iterations =  1.5

     negative rho (up, down):  7.866E-04 0.000E+00

     total cpu time spent up to now is      708.9 secs

     total energy              =    -471.89804307 Ry
     estimated scf accuracy    <       0.00000065 Ry

     iteration # 10     ecut=    40.00 Ry     beta= 0.70
     Davidson diagonalization with overlap
     ethr =  1.54E-09,  avg # of iterations =  6.0

     negative rho (up, down):  7.866E-04 0.000E+00

     total cpu time spent up to now is      710.0 secs

     total energy              =    -471.89804321 Ry
     estimated scf accuracy    <       0.00000035 Ry

     iteration # 11     ecut=    40.00 Ry     beta= 0.70
     Davidson diagonalization with overlap
     ethr =  8.37E-10,  avg # of iterations =  1.8

     negative rho (up, down):  7.866E-04 0.000E+00

     total cpu time spent up to now is      710.9 secs

     total energy              =    -471.89804322 Ry
     estimated scf accuracy    <       0.00000007 Ry

     iteration # 12     ecut=    40.00 Ry     beta= 0.70
     Davidson diagonalization with overlap
     ethr =  1.68E-10,  avg # of iterations =  6.2

     negative rho (up, down):  7.867E-04 0.000E+00

     total cpu time spent up to now is      711.9 secs

     total energy              =    -471.89804323 Ry
     estimated scf accuracy    <          2.3E-09 Ry

     iteration # 13     ecut=    40.00 Ry     beta= 0.70
     Davidson diagonalization with overlap
     ethr =  5.58E-12,  avg # of iterations =  8.2

     negative rho (up, down):  7.867E-04 0.000E+00

     total cpu time spent up to now is      713.1 secs

     total energy              =    -471.89804323 Ry
     estimated scf accuracy    <          5.2E-10 Ry

     iteration # 14     ecut=    40.00 Ry     beta= 0.70
     Davidson diagonalization with overlap
     ethr =  1.23E-12,  avg # of iterations =  4.5

     negative rho (up, down):  7.867E-04 0.000E+00

     total cpu time spent up to now is      714.1 secs

     End of self-consistent calculation

          k = 0.0000 0.0000 0.0000 (  5509 PWs)   bands (ev):

   -55.4196 -55.3503 -31.9245 -31.5545 -31.4986 -31.4871 -31.4465 -31.4411
   -19.6390 -19.6014  -9.9709  -7.7776  -6.7969  -3.0355  -2.9972  -2.7516
    -2.6765  -2.0678  -0.0765  -0.0515   1.9719   2.2130   2.2348   2.3184
     2.4349

          k = 0.0000 0.2887 0.0000 (  5504 PWs)   bands (ev):

   -55.3849 -55.3325 -31.8610 -31.7383 -31.6228 -31.5600 -31.5132 -31.4741
   -19.4498 -19.4195  -9.2172  -7.4213  -7.1377  -3.9610  -3.5570  -2.9779
    -2.8459  -1.8284  -1.4658  -0.5122   1.1512   2.8421   3.1222   3.1723
     3.5781

          k = 0.0000-0.5773 0.0000 (  5552 PWs)   bands (ev):

   -55.3451 -55.3195 -31.9601 -31.8824 -31.6646 -31.6163 -31.5416 -31.5064
   -19.2683 -19.2365  -8.4320  -7.2025  -7.0678  -5.0129  -4.5429  -3.1356
    -2.9866  -2.4933  -1.2047  -0.5412   0.2985   3.7062   4.1665   4.5236
     4.5673

          k = 0.2500 0.1443 0.0000 (  5504 PWs)   bands (ev):

   -55.3847 -55.3326 -31.8616 -31.7443 -31.6270 -31.5528 -31.5156 -31.4680
   -19.4498 -19.4188  -9.2247  -7.4297  -7.1208  -3.9508  -3.5708  -2.9581
    -2.8264  -1.8327  -1.5153  -0.5206   1.1189   2.8734   3.1389   3.1703
     3.5783

          k = 0.2500 0.4330 0.0000 (  5528 PWs)   bands (ev):

   -55.3448 -55.3197 -31.8745 -31.8370 -31.7296 -31.6110 -31.6045 -31.5210
   -19.2668 -19.2347  -8.3914  -7.1966  -7.1661  -4.3864  -4.3356  -3.4349
    -3.3817  -2.2939  -1.6909  -1.2543   2.2957   2.4428   3.7730   4.1528
     4.2723

          k = 0.2500-0.4330 0.0000 (  5528 PWs)   bands (ev):

   -55.3442 -55.3206 -31.8724 -31.8388 -31.7224 -31.6158 -31.6039 -31.5226
   -19.2666 -19.2351  -8.3890  -7.1909  -7.1569  -4.3863  -4.3603  -3.4369
    -3.4069  -2.3145  -1.6882  -1.2347   2.3023   2.4548   3.8011   4.1755
     4.2999

          k = 0.2500-0.1443 0.0000 (  5504 PWs)   bands (ev):

   -55.3844 -55.3330 -31.8622 -31.7430 -31.6246 -31.5531 -31.5153 -31.4693
   -19.4498 -19.4197  -9.2216  -7.4257  -7.1166  -3.9560  -3.5587  -3.0005
    -2.8659  -1.8466  -1.4594  -0.5229   1.1497   2.8594   3.1280   3.1607
     3.5979

          k =-0.5000-0.2887 0.0000 (  5552 PWs)   bands (ev):

   -55.3444 -55.3202 -31.9635 -31.8933 -31.6557 -31.6096 -31.5491 -31.4998
   -19.2685 -19.2350  -8.4418  -7.2325  -7.0584  -4.9400  -4.5339  -3.1196
    -2.9707  -2.5625  -1.2535  -0.5494   0.2637   3.7286   4.1614   4.5286
     4.5695

          k =-0.5000-0.0000 0.0000 (  5528 PWs)   bands (ev):

   -55.3438 -55.3209 -31.8785 -31.8426 -31.7225 -31.6053 -31.5979 -31.5290
   -19.2668 -19.2344  -8.3882  -7.1963  -7.1622  -4.3826  -4.3410  -3.4305
    -3.3930  -2.3492  -1.6879  -1.2446   2.2824   2.4421   3.7907   4.1760
     4.2903

          k =-0.5000-0.8660 0.0000 (  5552 PWs)   bands (ev):

   -55.3430 -55.3219 -31.9638 -31.8890 -31.6514 -31.6098 -31.5526 -31.5009
   -19.2682 -19.2363  -8.4372  -7.2115  -7.0426  -4.9905  -4.5437  -3.1567
    -3.0095  -2.5538  -1.2160  -0.5643   0.3128   3.7605   4.1520   4.5458
     4.5709

     the Fermi energy is     2.3290 ev

!    total energy              =    -471.89804323 Ry
     total all-electron energy =     -3795.201732 Ry
     estimated scf accuracy    <          9.5E-11 Ry
     smearing contrib. (-TS)   =      -0.00525684 Ry
     internal energy E=F+TS    =    -471.89278640 Ry

     The total energy is F=E-TS. E is the sum of the following terms:
     one-electron contribution =   -3270.21021059 Ry
     hartree contribution      =    1641.19903191 Ry
     xc contribution           =     -58.25845721 Ry
     ewald contribution        =    1371.36300790 Ry
     one-center paw contrib.   =    -155.98615840 Ry

     convergence has been achieved in  14 iterations

     negative rho (up, down):  7.867E-04 0.000E+00

     Forces acting on atoms (cartesian axes, Ry/au):

     atom    1 type  1   force =    -0.00192981    0.00376623   -0.00221313
     atom    2 type  1   force =     0.00127453   -0.00046196    0.00565977
     atom    3 type  2   force =    -0.00134179   -0.00090335   -0.00280922
     atom    4 type  3   force =    -0.00123110   -0.00543058    0.00381319
     atom    5 type  3   force =    -0.00399313   -0.00132268   -0.00201616
     atom    6 type  4   force =     0.00202365    0.00081531    0.00265716
     atom    7 type  4   force =     0.00519765    0.00353704   -0.00509161

     Total force =     0.014552     Total SCF correction =     0.000045
     Energy error            =      3.7E-04 Ry
     Gradient error          =      5.7E-03 Ry/Bohr

     number of scf cycles    =  37
     number of bfgs steps    =  36

     energy             old  =    -471.8976697869 Ry
     energy             new  =    -471.8980432323 Ry

     CASE: energy            _new < energy            _old

     new trust radius        =       0.0177714662 bohr
     new conv_thr            =       0.0000000004 Ry


ATOMIC_POSITIONS (angstrom)
Ti              -0.2776339622        1.7704051099        3.1274658391
Ti               1.2320184896        0.9047414533        5.4392448464
C                2.7604494863        0.0159303215        4.2865496224
O               -0.3041733026        1.7908132550        6.7093306419
O                1.2618901556        0.8959568013        1.8556773120
H                1.1995728199        0.8765184091        0.8840648375
H               -0.4527736866        1.6916946498        7.6711469007



     Writing config-only to output data dir ./tmp/ti2coh2.save/ :
     XML data file
     NEW-OLD atomic charge density approx. for the potential

     Check: negative core charge=   -0.000005

     negative rho (up, down):  7.809E-04 0.000E+00

     total cpu time spent up to now is      714.8 secs

     Self-consistent Calculation

     iteration #  1     ecut=    40.00 Ry     beta= 0.70
     Davidson diagonalization with overlap
     ethr =  1.00E-06,  avg # of iterations =  5.7

     negative rho (up, down):  7.716E-04 0.000E+00

     total cpu time spent up to now is      716.1 secs

     total energy              =    -471.89818773 Ry
     estimated scf accuracy    <       0.00008482 Ry

     iteration #  2     ecut=    40.00 Ry     beta= 0.70
     Davidson diagonalization with overlap
     ethr =  2.02E-07,  avg # of iterations =  9.4

     negative rho (up, down):  7.912E-04 0.000E+00

     total cpu time spent up to now is      717.4 secs

     total energy              =    -471.89802628 Ry
     estimated scf accuracy    <       0.00323352 Ry

     iteration #  3     ecut=    40.00 Ry     beta= 0.70
     Davidson diagonalization with overlap
     ethr =  2.02E-07,  avg # of iterations =  8.9

     negative rho (up, down):  7.983E-04 0.000E+00

     total cpu time spent up to now is      718.4 secs

     total energy              =    -471.89817416 Ry
     estimated scf accuracy    <       0.00053211 Ry

     iteration #  4     ecut=    40.00 Ry     beta= 0.70
     Davidson diagonalization with overlap
     ethr =  2.02E-07,  avg # of iterations =  7.0

     negative rho (up, down):  7.894E-04 0.000E+00

     total cpu time spent up to now is      719.4 secs

     total energy              =    -471.89819122 Ry
     estimated scf accuracy    <       0.00060435 Ry

     iteration #  5     ecut=    40.00 Ry     beta= 0.70
     Davidson diagonalization with overlap
     ethr =  2.02E-07,  avg # of iterations =  2.2

     negative rho (up, down):  7.898E-04 0.000E+00

     total cpu time spent up to now is      720.3 secs

     total energy              =    -471.89822039 Ry
     estimated scf accuracy    <       0.00013252 Ry

     iteration #  6     ecut=    40.00 Ry     beta= 0.70
     Davidson diagonalization with overlap
     ethr =  2.02E-07,  avg # of iterations =  2.4

     negative rho (up, down):  7.826E-04 0.000E+00

     total cpu time spent up to now is      721.2 secs

     total energy              =    -471.89823681 Ry
     estimated scf accuracy    <       0.00000629 Ry

     iteration #  7     ecut=    40.00 Ry     beta= 0.70
     Davidson diagonalization with overlap
     ethr =  1.50E-08,  avg # of iterations =  7.3

     negative rho (up, down):  7.814E-04 0.000E+00

     total cpu time spent up to now is      722.1 secs

     total energy              =    -471.89823965 Ry
     estimated scf accuracy    <       0.00000203 Ry

     iteration #  8     ecut=    40.00 Ry     beta= 0.70
     Davidson diagonalization with overlap
     ethr =  4.84E-09,  avg # of iterations =  2.6

     negative rho (up, down):  7.815E-04 0.000E+00

     total cpu time spent up to now is      723.0 secs

     total energy              =    -471.89824000 Ry
     estimated scf accuracy    <       0.00000074 Ry

     iteration #  9     ecut=    40.00 Ry     beta= 0.70
     Davidson diagonalization with overlap
     ethr =  1.76E-09,  avg # of iterations =  2.7

     negative rho (up, down):  7.819E-04 0.000E+00

     total cpu time spent up to now is      723.9 secs

     total energy              =    -471.89824008 Ry
     estimated scf accuracy    <       0.00000009 Ry

     iteration # 10     ecut=    40.00 Ry     beta= 0.70
     Davidson diagonalization with overlap
     ethr =  2.11E-10,  avg # of iterations =  6.9

     negative rho (up, down):  7.820E-04 0.000E+00

     total cpu time spent up to now is      724.9 secs

     total energy              =    -471.89824012 Ry
     estimated scf accuracy    <       0.00000011 Ry

     iteration # 11     ecut=    40.00 Ry     beta= 0.70
     Davidson diagonalization with overlap
     ethr =  2.11E-10,  avg # of iterations =  1.1

     negative rho (up, down):  7.821E-04 0.000E+00

     total cpu time spent up to now is      725.7 secs

     total energy              =    -471.89824012 Ry
     estimated scf accuracy    <       0.00000003 Ry

     iteration # 12     ecut=    40.00 Ry     beta= 0.70
     Davidson diagonalization with overlap
     ethr =  6.94E-11,  avg # of iterations =  3.8

     negative rho (up, down):  7.821E-04 0.000E+00

     total cpu time spent up to now is      726.5 secs

     total energy              =    -471.89824012 Ry
     estimated scf accuracy    <          2.1E-09 Ry

     iteration # 13     ecut=    40.00 Ry     beta= 0.70
     Davidson diagonalization with overlap
     ethr =  5.07E-12,  avg # of iterations =  7.4

     negative rho (up, down):  7.821E-04 0.000E+00

     total cpu time spent up to now is      727.7 secs

     total energy              =    -471.89824012 Ry
     estimated scf accuracy    <          2.1E-09 Ry

     iteration # 14     ecut=    40.00 Ry     beta= 0.70
     Davidson diagonalization with overlap
     ethr =  5.02E-12,  avg # of iterations =  1.4

     negative rho (up, down):  7.821E-04 0.000E+00

     total cpu time spent up to now is      728.4 secs

     total energy              =    -471.89824012 Ry
     estimated scf accuracy    <          9.1E-10 Ry

     iteration # 15     ecut=    40.00 Ry     beta= 0.70
     Davidson diagonalization with overlap
     ethr =  2.16E-12,  avg # of iterations =  1.6

     negative rho (up, down):  7.821E-04 0.000E+00

     total cpu time spent up to now is      729.2 secs

     End of self-consistent calculation

          k = 0.0000 0.0000 0.0000 (  5509 PWs)   bands (ev):

   -55.4274 -55.3593 -31.9305 -31.5640 -31.5060 -31.4964 -31.4563 -31.4501
   -19.6663 -19.6400  -9.9804  -7.8068  -6.8211  -3.0649  -3.0257  -2.7765
    -2.7121  -2.0698  -0.0666  -0.0464   1.9627   2.2115   2.2323   2.3123
     2.4262

          k = 0.0000 0.2887 0.0000 (  5504 PWs)   bands (ev):

   -55.3928 -55.3415 -31.8669 -31.7469 -31.6328 -31.5675 -31.5228 -31.4834
   -19.4734 -19.4630  -9.2252  -7.4505  -7.1612  -3.9887  -3.5861  -3.0082
    -2.8835  -1.8300  -1.4658  -0.5083   1.1492   2.8411   3.1204   3.1676
     3.5675

          k = 0.0000-0.5773 0.0000 (  5552 PWs)   bands (ev):

   -55.3529 -55.3286 -31.9684 -31.8907 -31.6721 -31.6237 -31.5514 -31.5159
   -19.2915 -19.2816  -8.4361  -7.2318  -7.0915  -5.0344  -4.5708  -3.1640
    -3.0242  -2.5094  -1.2109  -0.5405   0.2995   3.6920   4.1594   4.5188
     4.5583

          k = 0.2500 0.1443 0.0000 (  5504 PWs)   bands (ev):

   -55.3927 -55.3416 -31.8674 -31.7525 -31.6374 -31.5611 -31.5250 -31.4773
   -19.4733 -19.4625  -9.2320  -7.4566  -7.1489  -3.9794  -3.5988  -2.9865
    -2.8591  -1.8324  -1.5156  -0.5175   1.1161   2.8704   3.1355   3.1673
     3.5656

          k = 0.2500 0.4330 0.0000 (  5528 PWs)   bands (ev):

   -55.3527 -55.3287 -31.8821 -31.8461 -31.7362 -31.6198 -31.6135 -31.5311
   -19.2898 -19.2802  -8.3932  -7.2192  -7.1989  -4.3974  -4.3812  -3.4525
    -3.4209  -2.3053  -1.6930  -1.2601   2.2999   2.4400   3.7675   4.1488
     4.2621

          k = 0.2500-0.4330 0.0000 (  5528 PWs)   bands (ev):

   -55.3522 -55.3294 -31.8797 -31.8466 -31.7297 -31.6247 -31.6147 -31.5319
   -19.2896 -19.2804  -8.3913  -7.2130  -7.1928  -4.4120  -4.3903  -3.4684
    -3.4285  -2.3232  -1.6910  -1.2403   2.3074   2.4536   3.7927   4.1699
     4.2894

          k = 0.2500-0.1443 0.0000 (  5504 PWs)   bands (ev):

   -55.3924 -55.3419 -31.8679 -31.7507 -31.6343 -31.5620 -31.5245 -31.4795
   -19.4733 -19.4631  -9.2286  -7.4540  -7.1459  -3.9853  -3.5874  -3.0294
    -2.8924  -1.8452  -1.4611  -0.5170   1.1476   2.8542   3.1249   3.1590
     3.5839

          k =-0.5000-0.2887 0.0000 (  5552 PWs)   bands (ev):

   -55.3524 -55.3290 -31.9713 -31.9019 -31.6643 -31.6177 -31.5579 -31.5094
   -19.2917 -19.2805  -8.4450  -7.2590  -7.0850  -4.9625  -4.5670  -3.1467
    -3.0015  -2.5680  -1.2593  -0.5485   0.2619   3.7096   4.1558   4.5210
     4.5596

          k =-0.5000-0.0000 0.0000 (  5528 PWs)   bands (ev):

   -55.3519 -55.3297 -31.8852 -31.8507 -31.7307 -31.6153 -31.6078 -31.5376
   -19.2897 -19.2800  -8.3906  -7.2177  -7.1988  -4.3953  -4.3835  -3.4490
    -3.4289  -2.3481  -1.6912  -1.2528   2.2898   2.4386   3.7822   4.1672
     4.2759

          k =-0.5000-0.8660 0.0000 (  5552 PWs)   bands (ev):

   -55.3512 -55.3305 -31.9713 -31.8963 -31.6616 -31.6185 -31.5603 -31.5114
   -19.2914 -19.2814  -8.4401  -7.2390  -7.0744  -5.0173  -4.5699  -3.1838
    -3.0356  -2.5571  -1.2205  -0.5588   0.3101   3.7360   4.1478   4.5359
     4.5616

     the Fermi energy is     2.3297 ev

!    total energy              =    -471.89824012 Ry
     total all-electron energy =     -3795.201929 Ry
     estimated scf accuracy    <          2.4E-10 Ry
     smearing contrib. (-TS)   =      -0.00530560 Ry
     internal energy E=F+TS    =    -471.89293452 Ry

     The total energy is F=E-TS. E is the sum of the following terms:
     one-electron contribution =   -3270.22808081 Ry
     hartree contribution      =    1641.18583764 Ry
     xc contribution           =     -58.26067152 Ry
     ewald contribution        =    1371.39608050 Ry
     one-center paw contrib.   =    -155.98610033 Ry

     convergence has been achieved in  15 iterations

     negative rho (up, down):  7.821E-04 0.000E+00

     Forces acting on atoms (cartesian axes, Ry/au):

     atom    1 type  1   force =    -0.00187701    0.00225805   -0.00120000
     atom    2 type  1   force =     0.00053259   -0.00131023    0.00039900
     atom    3 type  2   force =    -0.00031615    0.00001889   -0.00220184
     atom    4 type  3   force =    -0.00148294   -0.00389333    0.00673755
     atom    5 type  3   force =    -0.00362413   -0.00099323    0.00310154
     atom    6 type  4   force =     0.00159291    0.00069564   -0.00220557
     atom    7 type  4   force =     0.00517472    0.00322421   -0.00463068

     Total force =     0.013045     Total SCF correction =     0.000075
     Energy error            =      2.0E-04 Ry
     Gradient error          =      6.7E-03 Ry/Bohr

     number of scf cycles    =  38
     number of bfgs steps    =  37

     energy             old  =    -471.8980432323 Ry
     energy             new  =    -471.8982401237 Ry

     CASE: energy            _new < energy            _old

     new trust radius        =       0.0390972256 bohr
     new conv_thr            =       0.0000000002 Ry


ATOMIC_POSITIONS (angstrom)
Ti              -0.2826064993        1.7724249959        3.1272947357
Ti               1.2303947408        0.8996682653        5.4433545763
C                2.7559743570        0.0138092874        4.2868943485
O               -0.2925401899        1.7831416402        6.7066999490
O                1.2571990351        0.8968946224        1.8554304804
H                1.1901910486        0.8728626169        0.8844650021
H               -0.4392624924        1.7072585719        7.6693409080



     Writing config-only to output data dir ./tmp/ti2coh2.save/ :
     XML data file
     NEW-OLD atomic charge density approx. for the potential

     Check: negative core charge=   -0.000005

     negative rho (up, down):  7.767E-04 0.000E+00

     total cpu time spent up to now is      729.8 secs

     Self-consistent Calculation

     iteration #  1     ecut=    40.00 Ry     beta= 0.70
     Davidson diagonalization with overlap
     ethr =  1.00E-06,  avg # of iterations =  6.9

     negative rho (up, down):  7.676E-04 0.000E+00

     total cpu time spent up to now is      731.4 secs

     total energy              =    -471.89835365 Ry
     estimated scf accuracy    <       0.00015130 Ry

     iteration #  2     ecut=    40.00 Ry     beta= 0.70
     Davidson diagonalization with overlap
     ethr =  3.60E-07,  avg # of iterations =  4.7

     negative rho (up, down):  7.965E-04 0.000E+00

     total cpu time spent up to now is      732.6 secs

     total energy              =    -471.89820137 Ry
     estimated scf accuracy    <       0.00172786 Ry

     iteration #  3     ecut=    40.00 Ry     beta= 0.70
     Davidson diagonalization with overlap
     ethr =  3.60E-07,  avg # of iterations =  8.2

     negative rho (up, down):  7.994E-04 0.000E+00

     total cpu time spent up to now is      733.6 secs

     total energy              =    -471.89828526 Ry
     estimated scf accuracy    <       0.00177070 Ry

     iteration #  4     ecut=    40.00 Ry     beta= 0.70
     Davidson diagonalization with overlap
     ethr =  3.60E-07,  avg # of iterations =  9.6

     negative rho (up, down):  7.892E-04 0.000E+00

     total cpu time spent up to now is      734.7 secs

     total energy              =    -471.89830136 Ry
     estimated scf accuracy    <       0.00208951 Ry

     iteration #  5     ecut=    40.00 Ry     beta= 0.70
     Davidson diagonalization with overlap
     ethr =  3.60E-07,  avg # of iterations =  3.1

     negative rho (up, down):  7.920E-04 0.000E+00

     total cpu time spent up to now is      735.6 secs

     total energy              =    -471.89839288 Ry
     estimated scf accuracy    <       0.00016446 Ry

     iteration #  6     ecut=    40.00 Ry     beta= 0.70
     Davidson diagonalization with overlap
     ethr =  3.60E-07,  avg # of iterations =  1.9

     negative rho (up, down):  7.809E-04 0.000E+00

     total cpu time spent up to now is      736.4 secs

     total energy              =    -471.89841232 Ry
     estimated scf accuracy    <       0.00003748 Ry

     iteration #  7     ecut=    40.00 Ry     beta= 0.70
     Davidson diagonalization with overlap
     ethr =  8.92E-08,  avg # of iterations =  8.6

     negative rho (up, down):  7.777E-04 0.000E+00

     total cpu time spent up to now is      737.4 secs

     total energy              =    -471.89842322 Ry
     estimated scf accuracy    <       0.00002114 Ry

     iteration #  8     ecut=    40.00 Ry     beta= 0.70
     Davidson diagonalization with overlap
     ethr =  5.03E-08,  avg # of iterations =  1.9

     negative rho (up, down):  7.774E-04 0.000E+00

     total cpu time spent up to now is      738.3 secs

     total energy              =    -471.89842298 Ry
     estimated scf accuracy    <       0.00001314 Ry

     iteration #  9     ecut=    40.00 Ry     beta= 0.70
     Davidson diagonalization with overlap
     ethr =  3.13E-08,  avg # of iterations =  1.5

     negative rho (up, down):  7.774E-04 0.000E+00

     total cpu time spent up to now is      741.4 secs

     total energy              =    -471.89842313 Ry
     estimated scf accuracy    <       0.00000308 Ry

     iteration # 10     ecut=    40.00 Ry     beta= 0.70
     Davidson diagonalization with overlap
     ethr =  7.34E-09,  avg # of iterations =  4.5

     negative rho (up, down):  7.780E-04 0.000E+00

     total cpu time spent up to now is      742.4 secs

     total energy              =    -471.89842355 Ry
     estimated scf accuracy    <       0.00000010 Ry

     iteration # 11     ecut=    40.00 Ry     beta= 0.70
     Davidson diagonalization with overlap
     ethr =  2.42E-10,  avg # of iterations =  9.4

     negative rho (up, down):  7.781E-04 0.000E+00

     total cpu time spent up to now is      743.6 secs

     total energy              =    -471.89842361 Ry
     estimated scf accuracy    <       0.00000048 Ry

     iteration # 12     ecut=    40.00 Ry     beta= 0.70
     Davidson diagonalization with overlap
     ethr =  2.42E-10,  avg # of iterations =  2.8

     negative rho (up, down):  7.782E-04 0.000E+00

     total cpu time spent up to now is      744.5 secs

     total energy              =    -471.89842361 Ry
     estimated scf accuracy    <       0.00000008 Ry

     iteration # 13     ecut=    40.00 Ry     beta= 0.70
     Davidson diagonalization with overlap
     ethr =  1.91E-10,  avg # of iterations =  2.7

     negative rho (up, down):  7.782E-04 0.000E+00

     total cpu time spent up to now is      745.4 secs

     total energy              =    -471.89842361 Ry
     estimated scf accuracy    <          2.1E-09 Ry

     iteration # 14     ecut=    40.00 Ry     beta= 0.70
     Davidson diagonalization with overlap
     ethr =  4.98E-12,  avg # of iterations = 10.9

     negative rho (up, down):  7.782E-04 0.000E+00

     total cpu time spent up to now is      746.8 secs

     total energy              =    -471.89842362 Ry
     estimated scf accuracy    <       0.00000002 Ry

     iteration # 15     ecut=    40.00 Ry     beta= 0.70
     Davidson diagonalization with overlap
     ethr =  4.98E-12,  avg # of iterations =  2.0

     negative rho (up, down):  7.782E-04 0.000E+00

     total cpu time spent up to now is      747.6 secs

     total energy              =    -471.89842362 Ry
     estimated scf accuracy    <       0.00000001 Ry

     iteration # 16     ecut=    40.00 Ry     beta= 0.70
     Davidson diagonalization with overlap
     ethr =  4.98E-12,  avg # of iterations =  5.3

     negative rho (up, down):  7.782E-04 0.000E+00

     total cpu time spent up to now is      748.6 secs

     total energy              =    -471.89842362 Ry
     estimated scf accuracy    <          1.1E-09 Ry

     iteration # 17     ecut=    40.00 Ry     beta= 0.70
     Davidson diagonalization with overlap
     ethr =  2.69E-12,  avg # of iterations =  1.8

     negative rho (up, down):  7.782E-04 0.000E+00

     total cpu time spent up to now is      749.4 secs

     total energy              =    -471.89842362 Ry
     estimated scf accuracy    <          4.8E-10 Ry

     iteration # 18     ecut=    40.00 Ry     beta= 0.70
     Davidson diagonalization with overlap
     ethr =  1.13E-12,  avg # of iterations =  4.2

     negative rho (up, down):  7.782E-04 0.000E+00

     total cpu time spent up to now is      750.3 secs

     End of self-consistent calculation

          k = 0.0000 0.0000 0.0000 (  5509 PWs)   bands (ev):

   -55.4352 -55.3681 -31.9364 -31.5731 -31.5122 -31.5068 -31.4646 -31.4599
   -19.6995 -19.6585  -9.9886  -7.8308  -6.8418  -3.0837  -3.0591  -2.7949
    -2.7423  -2.0666  -0.0593  -0.0422   1.9536   2.2135   2.2257   2.3067
     2.4184

          k = 0.0000 0.2887 0.0000 (  5504 PWs)   bands (ev):

   -55.4006 -55.3503 -31.8728 -31.7562 -31.6430 -31.5738 -31.5325 -31.4915
   -19.5104 -19.4785  -9.2329  -7.4751  -7.1773  -4.0121  -3.6093  -3.0418
    -2.9052  -1.8323  -1.4696  -0.5082   1.1439   2.8433   3.1192   3.1624
     3.5587

          k = 0.0000-0.5773 0.0000 (  5552 PWs)   bands (ev):

   -55.3605 -55.3376 -31.9770 -31.9004 -31.6777 -31.6302 -31.5621 -31.5240
   -19.3289 -19.2980  -8.4401  -7.2578  -7.1048  -5.0493  -4.5941  -3.1944
    -3.0476  -2.5296  -1.2224  -0.5438   0.2979   3.6838   4.1514   4.5143
     4.5505

          k = 0.2500 0.1443 0.0000 (  5504 PWs)   bands (ev):

   -55.4005 -55.3503 -31.8731 -31.7593 -31.6461 -31.5704 -31.5338 -31.4873
   -19.5097 -19.4785  -9.2390  -7.4798  -7.1703  -4.0046  -3.6191  -3.0266
    -2.8827  -1.8319  -1.5088  -0.5103   1.1181   2.8638   3.1314   3.1609
     3.5547

          k = 0.2500 0.4330 0.0000 (  5528 PWs)   bands (ev):

   -55.3606 -55.3375 -31.8891 -31.8548 -31.7420 -31.6295 -31.6217 -31.5409
   -19.3266 -19.2968  -8.3954  -7.2486  -7.2130  -4.4318  -4.3955  -3.4844
    -3.4382  -2.3212  -1.6944  -1.2628   2.3044   2.4381   3.7623   4.1487
     4.2541

          k = 0.2500-0.4330 0.0000 (  5528 PWs)   bands (ev):

   -55.3601 -55.3380 -31.8885 -31.8546 -31.7372 -31.6321 -31.6229 -31.5419
   -19.3271 -19.2966  -8.3930  -7.2447  -7.2075  -4.4494  -4.3964  -3.5042
    -3.4357  -2.3275  -1.6945  -1.2508   2.3097   2.4474   3.7847   4.1623
     4.2731

          k = 0.2500-0.1443 0.0000 (  5504 PWs)   bands (ev):

   -55.4003 -55.3505 -31.8734 -31.7585 -31.6438 -31.5706 -31.5334 -31.4893
   -19.5103 -19.4785  -9.2342  -7.4779  -7.1715  -4.0119  -3.6092  -3.0494
    -2.9082  -1.8425  -1.4663  -0.5139   1.1435   2.8485   3.1220   3.1575
     3.5687

          k =-0.5000-0.2887 0.0000 (  5552 PWs)   bands (ev):

   -55.3604 -55.3376 -31.9783 -31.9076 -31.6739 -31.6268 -31.5654 -31.5197
   -19.3275 -19.2980  -8.4492  -7.2822  -7.1054  -4.9844  -4.5931  -3.1843
    -3.0256  -2.5702  -1.2566  -0.5441   0.2658   3.6888   4.1508   4.5153
     4.5503

          k =-0.5000-0.0000 0.0000 (  5528 PWs)   bands (ev):

   -55.3601 -55.3380 -31.8909 -31.8577 -31.7390 -31.6261 -31.6185 -31.5450
   -19.3264 -19.2966  -8.3935  -7.2505  -7.2142  -4.4304  -4.3940  -3.4850
    -3.4389  -2.3438  -1.6941  -1.2596   2.2998   2.4353   3.7732   4.1592
     4.2616

          k =-0.5000-0.8660 0.0000 (  5552 PWs)   bands (ev):

   -55.3595 -55.3387 -31.9787 -31.9040 -31.6711 -31.6272 -31.5675 -31.5214
   -19.3286 -19.2977  -8.4415  -7.2634  -7.1011  -5.0414  -4.5895  -3.2024
    -3.0515  -2.5552  -1.2284  -0.5550   0.3048   3.7109   4.1444   4.5246
     4.5517

     the Fermi energy is     2.3301 ev

!    total energy              =    -471.89842362 Ry
     total all-electron energy =     -3795.202113 Ry
     estimated scf accuracy    <          9.1E-11 Ry
     smearing contrib. (-TS)   =      -0.00536357 Ry
     internal energy E=F+TS    =    -471.89306005 Ry

     The total energy is F=E-TS. E is the sum of the following terms:
     one-electron contribution =   -3269.86532805 Ry
     hartree contribution      =    1640.98497792 Ry
     xc contribution           =     -58.26140785 Ry
     ewald contribution        =    1371.23473362 Ry
     one-center paw contrib.   =    -155.98603569 Ry

     convergence has been achieved in  18 iterations

     negative rho (up, down):  7.782E-04 0.000E+00

     Forces acting on atoms (cartesian axes, Ry/au):

     atom    1 type  1   force =    -0.00123555    0.00087589   -0.00017316
     atom    2 type  1   force =     0.00133910   -0.00109461   -0.00389086
     atom    3 type  2   force =     0.00072520    0.00061634   -0.00146053
     atom    4 type  3   force =    -0.00328742   -0.00235401    0.00616831
     atom    5 type  3   force =    -0.00383865   -0.00105682    0.00353376
     atom    6 type  4   force =     0.00165736    0.00073214   -0.00253181
     atom    7 type  4   force =     0.00463996    0.00228106   -0.00164571

     Total force =     0.012057     Total SCF correction =     0.000046
     Energy error            =      1.8E-04 Ry
     Gradient error          =      6.2E-03 Ry/Bohr

     number of scf cycles    =  39
     number of bfgs steps    =  38

     energy             old  =    -471.8982401237 Ry
     energy             new  =    -471.8984236179 Ry

     CASE: energy            _new < energy            _old

     new trust radius        =       0.0426741319 bohr
     new conv_thr            =       0.0000000002 Ry


ATOMIC_POSITIONS (angstrom)
Ti              -0.2859200141        1.7744351544        3.1270520359
Ti               1.2315986688        0.8950366003        5.4455062966
C                2.7538357393        0.0124201709        4.2854664759
O               -0.2933385442        1.7702115910        6.7038964241
O                1.2553143233        0.8980514389        1.8554199274
H                1.1829879747        0.8712189088        0.8842572460
H               -0.4251281477        1.7246861357        7.6718815941



     Writing config-only to output data dir ./tmp/ti2coh2.save/ :
     XML data file
     NEW-OLD atomic charge density approx. for the potential

     Check: negative core charge=   -0.000005

     negative rho (up, down):  7.759E-04 0.000E+00

     total cpu time spent up to now is      750.9 secs

     Self-consistent Calculation

     iteration #  1     ecut=    40.00 Ry     beta= 0.70
     Davidson diagonalization with overlap
     ethr =  1.00E-06,  avg # of iterations =  6.0

     negative rho (up, down):  7.692E-04 0.000E+00

     total cpu time spent up to now is      752.5 secs

     total energy              =    -471.89852866 Ry
     estimated scf accuracy    <       0.00011481 Ry

     iteration #  2     ecut=    40.00 Ry     beta= 0.70
     Davidson diagonalization with overlap
     ethr =  2.73E-07,  avg # of iterations =  6.0

     negative rho (up, down):  7.863E-04 0.000E+00

     total cpu time spent up to now is      753.5 secs

     total energy              =    -471.89838251 Ry
     estimated scf accuracy    <       0.00199519 Ry

     iteration #  3     ecut=    40.00 Ry     beta= 0.70
     Davidson diagonalization with overlap
     ethr =  2.73E-07,  avg # of iterations =  7.9

     negative rho (up, down):  7.878E-04 0.000E+00

     total cpu time spent up to now is      754.5 secs

     total energy              =    -471.89850884 Ry
     estimated scf accuracy    <       0.00097525 Ry

     iteration #  4     ecut=    40.00 Ry     beta= 0.70
     Davidson diagonalization with overlap
     ethr =  2.73E-07,  avg # of iterations =  6.7

     negative rho (up, down):  7.835E-04 0.000E+00

     total cpu time spent up to now is      755.5 secs

     total energy              =    -471.89849089 Ry
     estimated scf accuracy    <       0.00132793 Ry

     iteration #  5     ecut=    40.00 Ry     beta= 0.70
     Davidson diagonalization with overlap
     ethr =  2.73E-07,  avg # of iterations =  2.4

     negative rho (up, down):  7.807E-04 0.000E+00

     total cpu time spent up to now is      756.4 secs

     total energy              =    -471.89856589 Ry
     estimated scf accuracy    <       0.00001064 Ry

     iteration #  6     ecut=    40.00 Ry     beta= 0.70
     Davidson diagonalization with overlap
     ethr =  2.53E-08,  avg # of iterations =  7.4

     negative rho (up, down):  7.784E-04 0.000E+00

     total cpu time spent up to now is      757.5 secs

     total energy              =    -471.89857050 Ry
     estimated scf accuracy    <       0.00002393 Ry

     iteration #  7     ecut=    40.00 Ry     beta= 0.70
     Davidson diagonalization with overlap
     ethr =  2.53E-08,  avg # of iterations =  2.7

     negative rho (up, down):  7.775E-04 0.000E+00

     total cpu time spent up to now is      758.3 secs

     total energy              =    -471.89857254 Ry
     estimated scf accuracy    <       0.00000702 Ry

     iteration #  8     ecut=    40.00 Ry     beta= 0.70
     Davidson diagonalization with overlap
     ethr =  1.67E-08,  avg # of iterations =  1.9

     negative rho (up, down):  7.774E-04 0.000E+00

     total cpu time spent up to now is      759.1 secs

     total energy              =    -471.89857291 Ry
     estimated scf accuracy    <       0.00000199 Ry

     iteration #  9     ecut=    40.00 Ry     beta= 0.70
     Davidson diagonalization with overlap
     ethr =  4.75E-09,  avg # of iterations =  5.3

     negative rho (up, down):  7.781E-04 0.000E+00

     total cpu time spent up to now is      760.0 secs

     total energy              =    -471.89857318 Ry
     estimated scf accuracy    <       0.00000003 Ry

     iteration # 10     ecut=    40.00 Ry     beta= 0.70
     Davidson diagonalization with overlap
     ethr =  6.27E-11,  avg # of iterations = 11.8

     negative rho (up, down):  7.786E-04 0.000E+00

     total cpu time spent up to now is      761.5 secs

     total energy              =    -471.89857324 Ry
     estimated scf accuracy    <       0.00000031 Ry

     iteration # 11     ecut=    40.00 Ry     beta= 0.70
     Davidson diagonalization with overlap
     ethr =  6.27E-11,  avg # of iterations =  4.6

     negative rho (up, down):  7.787E-04 0.000E+00

     total cpu time spent up to now is      762.4 secs

     total energy              =    -471.89857325 Ry
     estimated scf accuracy    <       0.00000008 Ry

     iteration # 12     ecut=    40.00 Ry     beta= 0.70
     Davidson diagonalization with overlap
     ethr =  6.27E-11,  avg # of iterations =  2.6

     negative rho (up, down):  7.789E-04 0.000E+00

     total cpu time spent up to now is      763.2 secs

     total energy              =    -471.89857325 Ry
     estimated scf accuracy    <       0.00000001 Ry

     iteration # 13     ecut=    40.00 Ry     beta= 0.70
     Davidson diagonalization with overlap
     ethr =  3.57E-11,  avg # of iterations =  4.0

     negative rho (up, down):  7.789E-04 0.000E+00

     total cpu time spent up to now is      764.1 secs

     total energy              =    -471.89857325 Ry
     estimated scf accuracy    <          5.7E-10 Ry

     iteration # 14     ecut=    40.00 Ry     beta= 0.70
     Davidson diagonalization with overlap
     ethr =  1.36E-12,  avg # of iterations = 11.5

     negative rho (up, down):  7.789E-04 0.000E+00

     total cpu time spent up to now is      765.5 secs

     total energy              =    -471.89857325 Ry
     estimated scf accuracy    <          4.3E-09 Ry

     iteration # 15     ecut=    40.00 Ry     beta= 0.70
     Davidson diagonalization with overlap
     ethr =  1.36E-12,  avg # of iterations =  2.4

     negative rho (up, down):  7.789E-04 0.000E+00

     total cpu time spent up to now is      766.3 secs

     total energy              =    -471.89857325 Ry
     estimated scf accuracy    <          1.4E-09 Ry

     iteration # 16     ecut=    40.00 Ry     beta= 0.70
     Davidson diagonalization with overlap
     ethr =  1.36E-12,  avg # of iterations =  1.2

     negative rho (up, down):  7.789E-04 0.000E+00

     total cpu time spent up to now is      767.1 secs

     total energy              =    -471.89857325 Ry
     estimated scf accuracy    <          1.0E-09 Ry

     iteration # 17     ecut=    40.00 Ry     beta= 0.70
     Davidson diagonalization with overlap
     ethr =  1.36E-12,  avg # of iterations =  3.0

     negative rho (up, down):  7.789E-04 0.000E+00

     total cpu time spent up to now is      768.0 secs

     End of self-consistent calculation

          k = 0.0000 0.0000 0.0000 (  5509 PWs)   bands (ev):

   -55.4423 -55.3757 -31.9424 -31.5809 -31.5180 -31.5157 -31.4724 -31.4676
   -19.7125 -19.6617  -9.9950  -7.8445  -6.8522  -3.1019  -3.0776  -2.8053
    -2.7572  -2.0733  -0.0530  -0.0413   1.9418   2.2091   2.2234   2.2990
     2.4119

          k = 0.0000 0.2887 0.0000 (  5504 PWs)   bands (ev):

   -55.4077 -55.3579 -31.8790 -31.7644 -31.6515 -31.5797 -31.5407 -31.4985
   -19.5247 -19.4807  -9.2405  -7.4888  -7.1812  -4.0270  -3.6239  -3.0699
    -2.9173  -1.8375  -1.4746  -0.5084   1.1379   2.8423   3.1125   3.1554
     3.5526

          k = 0.0000-0.5773 0.0000 (  5552 PWs)   bands (ev):

   -55.3675 -55.3454 -31.9848 -31.9088 -31.6831 -31.6361 -31.5713 -31.5309
   -19.3438 -19.3000  -8.4462  -7.2724  -7.1054  -5.0544  -4.6099  -3.2209
    -3.0609  -2.5514  -1.2310  -0.5470   0.2941   3.6802   4.1433   4.5119
     4.5439

          k = 0.2500 0.1443 0.0000 (  5504 PWs)   bands (ev):

   -55.4077 -55.3578 -31.8790 -31.7666 -31.6543 -31.5779 -31.5415 -31.4952
   -19.5242 -19.4805  -9.2429  -7.4901  -7.1845  -4.0240  -3.6302  -3.0462
    -2.8929  -1.8351  -1.5067  -0.5130   1.1170   2.8527   3.1209   3.1582
     3.5456

          k = 0.2500 0.4330 0.0000 (  5528 PWs)   bands (ev):

   -55.3677 -55.3451 -31.8966 -31.8632 -31.7476 -31.6371 -31.6275 -31.5500
   -19.3418 -19.2987  -8.3980  -7.2607  -7.2175  -4.4598  -4.4011  -3.5087
    -3.4450  -2.3319  -1.6984  -1.2675   2.3027   2.4335   3.7591   4.1451
     4.2478

          k = 0.2500-0.4330 0.0000 (  5528 PWs)   bands (ev):

   -55.3674 -55.3454 -31.8953 -31.8615 -31.7440 -31.6391 -31.6318 -31.5496
   -19.3418 -19.2984  -8.3971  -7.2614  -7.2115  -4.4733  -4.4019  -3.5237
    -3.4427  -2.3405  -1.6977  -1.2541   2.3073   2.4461   3.7727   4.1565
     4.2669

          k = 0.2500-0.1443 0.0000 (  5504 PWs)   bands (ev):

   -55.4076 -55.3580 -31.8792 -31.7650 -31.6513 -31.5790 -31.5410 -31.4981
   -19.5244 -19.4805  -9.2401  -7.4914  -7.1828  -4.0293  -3.6223  -3.0657
    -2.9197  -1.8422  -1.4708  -0.5096   1.1400   2.8396   3.1140   3.1531
     3.5564

          k =-0.5000-0.2887 0.0000 (  5552 PWs)   bands (ev):

   -55.3677 -55.3450 -31.9854 -31.9151 -31.6810 -31.6342 -31.5729 -31.5277
   -19.3431 -19.2998  -8.4497  -7.2865  -7.1159  -5.0130  -4.6093  -3.2014
    -3.0359  -2.5666  -1.2590  -0.5479   0.2666   3.6775   4.1449   4.5079
     4.5426

          k =-0.5000-0.0000 0.0000 (  5528 PWs)   bands (ev):

   -55.3675 -55.3453 -31.8970 -31.8641 -31.7468 -31.6350 -31.6276 -31.5514
   -19.3416 -19.2984  -8.3972  -7.2661  -7.2186  -4.4565  -4.3999  -3.5095
    -3.4435  -2.3368  -1.6989  -1.2668   2.3035   2.4314   3.7648   4.1489
     4.2511

          k =-0.5000-0.8660 0.0000 (  5552 PWs)   bands (ev):

   -55.3672 -55.3457 -31.9853 -31.9095 -31.6809 -31.6354 -31.5731 -31.5304
   -19.3432 -19.2996  -8.4455  -7.2775  -7.1118  -5.0552  -4.6029  -3.2184
    -3.0630  -2.5557  -1.2311  -0.5499   0.2994   3.6889   4.1410   4.5155
     4.5433

     the Fermi energy is     2.3277 ev

!    total energy              =    -471.89857325 Ry
     total all-electron energy =     -3795.202262 Ry
     estimated scf accuracy    <          3.4E-11 Ry
     smearing contrib. (-TS)   =      -0.00537819 Ry
     internal energy E=F+TS    =    -471.89319506 Ry

     The total energy is F=E-TS. E is the sum of the following terms:
     one-electron contribution =   -3269.80435976 Ry
     hartree contribution      =    1640.94035706 Ry
     xc contribution           =     -58.25936580 Ry
     ewald contribution        =    1371.21624385 Ry
     one-center paw contrib.   =    -155.98607040 Ry

     convergence has been achieved in  17 iterations

     negative rho (up, down):  7.789E-04 0.000E+00

     Forces acting on atoms (cartesian axes, Ry/au):

     atom    1 type  1   force =    -0.00063683   -0.00032946    0.00022005
     atom    2 type  1   force =     0.00023938   -0.00147406   -0.00675159
     atom    3 type  2   force =     0.00148199    0.00078198   -0.00023323
     atom    4 type  3   force =    -0.00329556   -0.00020942    0.00957384
     atom    5 type  3   force =    -0.00419796   -0.00111862    0.00215214
     atom    6 type  4   force =     0.00188134    0.00078075   -0.00131665
     atom    7 type  4   force =     0.00452765    0.00156883   -0.00364457

     Total force =     0.014813     Total SCF correction =     0.000024
     Energy error            =      1.5E-04 Ry
     Gradient error          =      9.6E-03 Ry/Bohr

     number of scf cycles    =  40
     number of bfgs steps    =  39

     energy             old  =    -471.8984236179 Ry
     energy             new  =    -471.8985732487 Ry

     CASE: energy            _new < energy            _old

     new trust radius        =       0.0455722789 bohr
     new conv_thr            =       0.0000000001 Ry


ATOMIC_POSITIONS (angstrom)
Ti              -0.2904818957        1.7759740960        3.1267793835
Ti               1.2325433152        0.8895872493        5.4440010849
C                2.7522259528        0.0114022979        4.2836405178
O               -0.2902616674        1.7607243658        6.7039068087
O                1.2497555500        0.8967220083        1.8570818147
H                1.1742928860        0.8693568644        0.8846155564
H               -0.4087241409        1.7422931184        7.6734548341



     Writing config-only to output data dir ./tmp/ti2coh2.save/ :
     XML data file
     NEW-OLD atomic charge density approx. for the potential

     Check: negative core charge=   -0.000005

     negative rho (up, down):  7.783E-04 0.000E+00

     total cpu time spent up to now is      768.7 secs

     Self-consistent Calculation

     iteration #  1     ecut=    40.00 Ry     beta= 0.70
     Davidson diagonalization with overlap
     ethr =  1.00E-06,  avg # of iterations =  6.0

     negative rho (up, down):  7.799E-04 0.000E+00

     total cpu time spent up to now is      770.3 secs

     total energy              =    -471.89868964 Ry
     estimated scf accuracy    <       0.00010309 Ry

     iteration #  2     ecut=    40.00 Ry     beta= 0.70
     Davidson diagonalization with overlap
     ethr =  2.45E-07,  avg # of iterations =  4.5

     negative rho (up, down):  7.854E-04 0.000E+00

     total cpu time spent up to now is      771.4 secs

     total energy              =    -471.89863203 Ry
     estimated scf accuracy    <       0.00044081 Ry

     iteration #  3     ecut=    40.00 Ry     beta= 0.70
     Davidson diagonalization with overlap
     ethr =  2.45E-07,  avg # of iterations =  8.2

     negative rho (up, down):  7.885E-04 0.000E+00

     total cpu time spent up to now is      772.4 secs

     total energy              =    -471.89862092 Ry
     estimated scf accuracy    <       0.00174266 Ry

     iteration #  4     ecut=    40.00 Ry     beta= 0.70
     Davidson diagonalization with overlap
     ethr =  2.45E-07,  avg # of iterations =  7.9

     negative rho (up, down):  7.928E-04 0.000E+00

     total cpu time spent up to now is      775.8 secs

     total energy              =    -471.89866037 Ry
     estimated scf accuracy    <       0.00111936 Ry

     iteration #  5     ecut=    40.00 Ry     beta= 0.70
     Davidson diagonalization with overlap
     ethr =  2.45E-07,  avg # of iterations =  3.7

     negative rho (up, down):  7.884E-04 0.000E+00

     total cpu time spent up to now is      776.7 secs

     total energy              =    -471.89871571 Ry
     estimated scf accuracy    <       0.00014338 Ry

     iteration #  6     ecut=    40.00 Ry     beta= 0.70
     Davidson diagonalization with overlap
     ethr =  2.45E-07,  avg # of iterations =  1.5

     negative rho (up, down):  7.786E-04 0.000E+00

     total cpu time spent up to now is      777.6 secs

     total energy              =    -471.89873318 Ry
     estimated scf accuracy    <       0.00000525 Ry

     iteration #  7     ecut=    40.00 Ry     beta= 0.70
     Davidson diagonalization with overlap
     ethr =  1.25E-08,  avg # of iterations =  7.4

     negative rho (up, down):  7.781E-04 0.000E+00

     total cpu time spent up to now is      778.8 secs

     total energy              =    -471.89873609 Ry
     estimated scf accuracy    <       0.00000239 Ry

     iteration #  8     ecut=    40.00 Ry     beta= 0.70
     Davidson diagonalization with overlap
     ethr =  5.70E-09,  avg # of iterations =  2.1

     negative rho (up, down):  7.786E-04 0.000E+00

     total cpu time spent up to now is      779.7 secs

     total energy              =    -471.89873621 Ry
     estimated scf accuracy    <       0.00000075 Ry

     iteration #  9     ecut=    40.00 Ry     beta= 0.70
     Davidson diagonalization with overlap
     ethr =  1.79E-09,  avg # of iterations =  5.7

     negative rho (up, down):  7.788E-04 0.000E+00

     total cpu time spent up to now is      780.7 secs

     total energy              =    -471.89873641 Ry
     estimated scf accuracy    <       0.00000015 Ry

     iteration # 10     ecut=    40.00 Ry     beta= 0.70
     Davidson diagonalization with overlap
     ethr =  3.46E-10,  avg # of iterations =  5.3

     negative rho (up, down):  7.790E-04 0.000E+00

     total cpu time spent up to now is      781.6 secs

     total energy              =    -471.89873640 Ry
     estimated scf accuracy    <       0.00000010 Ry

     iteration # 11     ecut=    40.00 Ry     beta= 0.70
     Davidson diagonalization with overlap
     ethr =  2.30E-10,  avg # of iterations =  5.0

     negative rho (up, down):  7.789E-04 0.000E+00

     total cpu time spent up to now is      782.7 secs

     total energy              =    -471.89873642 Ry
     estimated scf accuracy    <       0.00000002 Ry

     iteration # 12     ecut=    40.00 Ry     beta= 0.70
     Davidson diagonalization with overlap
     ethr =  4.11E-11,  avg # of iterations =  3.3

     negative rho (up, down):  7.788E-04 0.000E+00

     total cpu time spent up to now is      783.6 secs

     total energy              =    -471.89873642 Ry
     estimated scf accuracy    <          3.1E-09 Ry

     iteration # 13     ecut=    40.00 Ry     beta= 0.70
     Davidson diagonalization with overlap
     ethr =  7.44E-12,  avg # of iterations =  5.0

     negative rho (up, down):  7.788E-04 0.000E+00

     total cpu time spent up to now is      784.7 secs

     total energy              =    -471.89873643 Ry
     estimated scf accuracy    <          1.3E-09 Ry

     iteration # 14     ecut=    40.00 Ry     beta= 0.70
     Davidson diagonalization with overlap
     ethr =  3.01E-12,  avg # of iterations =  2.4

     negative rho (up, down):  7.788E-04 0.000E+00

     total cpu time spent up to now is      785.5 secs

     total energy              =    -471.89873643 Ry
     estimated scf accuracy    <          3.6E-10 Ry

     iteration # 15     ecut=    40.00 Ry     beta= 0.70
     Davidson diagonalization with overlap
     ethr =  8.62E-13,  avg # of iterations =  5.5

     negative rho (up, down):  7.788E-04 0.000E+00

     total cpu time spent up to now is      786.6 secs

     End of self-consistent calculation

          k = 0.0000 0.0000 0.0000 (  5509 PWs)   bands (ev):

   -55.4426 -55.3757 -31.9432 -31.5808 -31.5185 -31.5156 -31.4722 -31.4682
   -19.7103 -19.6596  -9.9967  -7.8457  -6.8516  -3.0975  -3.0777  -2.8018
    -2.7619  -2.0781  -0.0552  -0.0442   1.9409   2.2083   2.2204   2.2966
     2.4112

          k = 0.0000 0.2887 0.0000 (  5504 PWs)   bands (ev):

   -55.4079 -55.3580 -31.8800 -31.7661 -31.6524 -31.5783 -31.5411 -31.4972
   -19.5228 -19.4785  -9.2434  -7.4895  -7.1770  -4.0239  -3.6256  -3.0672
    -2.9200  -1.8427  -1.4810  -0.5145   1.1323   2.8472   3.1125   3.1526
     3.5554

          k = 0.0000-0.5773 0.0000 (  5552 PWs)   bands (ev):

   -55.3674 -55.3458 -31.9862 -31.9116 -31.6805 -31.6349 -31.5735 -31.5294
   -19.3420 -19.2978  -8.4499  -7.2736  -7.0992  -5.0454  -4.6123  -3.2194
    -3.0630  -2.5656  -1.2382  -0.5543   0.2896   3.6925   4.1397   4.5147
     4.5452

          k = 0.2500 0.1443 0.0000 (  5504 PWs)   bands (ev):

   -55.4079 -55.3579 -31.8797 -31.7667 -31.6538 -31.5786 -31.5412 -31.4958
   -19.5225 -19.4782  -9.2433  -7.4896  -7.1858  -4.0242  -3.6288  -3.0436
    -2.9003  -1.8385  -1.5016  -0.5165   1.1202   2.8477   3.1182   3.1561
     3.5472

          k = 0.2500 0.4330 0.0000 (  5528 PWs)   bands (ev):

   -55.3677 -55.3454 -31.8980 -31.8648 -31.7469 -31.6364 -31.6260 -31.5515
   -19.3403 -19.2963  -8.3992  -7.2562  -7.2176  -4.4559  -4.4078  -3.5025
    -3.4524  -2.3407  -1.7003  -1.2668   2.2987   2.4317   3.7648   4.1482
     4.2526

          k = 0.2500-0.4330 0.0000 (  5528 PWs)   bands (ev):

   -55.3677 -55.3455 -31.8961 -31.8625 -31.7450 -31.6383 -31.6315 -31.5497
   -19.3400 -19.2962  -8.3995  -7.2602  -7.2116  -4.4648  -4.4087  -3.5140
    -3.4491  -2.3438  -1.6994  -1.2560   2.3034   2.4435   3.7701   4.1543
     4.2668

          k = 0.2500-0.1443 0.0000 (  5504 PWs)   bands (ev):

   -55.4079 -55.3579 -31.8797 -31.7645 -31.6509 -31.5807 -31.5405 -31.4990
   -19.5224 -19.4783  -9.2416  -7.4917  -7.1849  -4.0279  -3.6229  -3.0563
    -2.9218  -1.8409  -1.4753  -0.5096   1.1379   2.8370   3.1124   3.1521
     3.5525

          k =-0.5000-0.2887 0.0000 (  5552 PWs)   bands (ev):

   -55.3679 -55.3452 -31.9859 -31.9147 -31.6812 -31.6351 -31.5727 -31.5283
   -19.3417 -19.2974  -8.4499  -7.2805  -7.1156  -5.0260  -4.6094  -3.1994
    -3.0423  -2.5612  -1.2539  -0.5517   0.2710   3.6814   4.1433   4.5082
     4.5430

          k =-0.5000-0.0000 0.0000 (  5528 PWs)   bands (ev):

   -55.3679 -55.3451 -31.8964 -31.8632 -31.7482 -31.6364 -31.6300 -31.5496
   -19.3400 -19.2960  -8.3998  -7.2635  -7.2188  -4.4519  -4.4072  -3.5043
    -3.4488  -2.3285  -1.7011  -1.2671   2.3049   2.4320   3.7638   4.1457
     4.2525

          k =-0.5000-0.8660 0.0000 (  5552 PWs)   bands (ev):

   -55.3678 -55.3453 -31.9852 -31.9087 -31.6834 -31.6371 -31.5710 -31.5314
   -19.3414 -19.2972  -8.4477  -7.2772  -7.1141  -5.0542  -4.6043  -3.2114
    -3.0635  -2.5481  -1.2299  -0.5472   0.2937   3.6804   4.1426   4.5121
     4.5426

     the Fermi energy is     2.3259 ev

!    total energy              =    -471.89873643 Ry
     total all-electron energy =     -3795.202425 Ry
     estimated scf accuracy    <          6.8E-11 Ry
     smearing contrib. (-TS)   =      -0.00536946 Ry
     internal energy E=F+TS    =    -471.89336697 Ry

     The total energy is F=E-TS. E is the sum of the following terms:
     one-electron contribution =   -3270.43223851 Ry
     hartree contribution      =    1641.25398212 Ry
     xc contribution           =     -58.25965759 Ry
     ewald contribution        =    1371.53068164 Ry
     one-center paw contrib.   =    -155.98613464 Ry

     convergence has been achieved in  15 iterations

     negative rho (up, down):  7.788E-04 0.000E+00

     Forces acting on atoms (cartesian axes, Ry/au):

     atom    1 type  1   force =     0.00035490   -0.00138935    0.00023265
     atom    2 type  1   force =    -0.00020358   -0.00093037   -0.00566640
     atom    3 type  2   force =     0.00143326    0.00029668    0.00054200
     atom    4 type  3   force =    -0.00333552    0.00137752    0.00707195
     atom    5 type  3   force =    -0.00427771   -0.00090521   -0.00134515
     atom    6 type  4   force =     0.00220694    0.00082698    0.00126828
     atom    7 type  4   force =     0.00382172    0.00072375   -0.00210334

     Total force =     0.012175     Total SCF correction =     0.000037
     Energy error            =      1.6E-04 Ry
     Gradient error          =      7.1E-03 Ry/Bohr

     number of scf cycles    =  41
     number of bfgs steps    =  40

     energy             old  =    -471.8985732487 Ry
     energy             new  =    -471.8987364252 Ry

     CASE: energy            _new < energy            _old

     new trust radius        =       0.0423533052 bohr
     new conv_thr            =       0.0000000002 Ry


ATOMIC_POSITIONS (angstrom)
Ti              -0.2944898649        1.7764886188        3.1265266259
Ti               1.2344555635        0.8857670224        5.4391817455
C                2.7524548949        0.0114042055        4.2812907993
O               -0.2922657074        1.7526884519        6.7045231763
O                1.2419889602        0.8925781867        1.8600564163
H                1.1691679760        0.8700731904        0.8866380459
H               -0.3919618223        1.7570603242        7.6752631908



     Writing config-only to output data dir ./tmp/ti2coh2.save/ :
     XML data file
     NEW-OLD atomic charge density approx. for the potential

     Check: negative core charge=   -0.000005

     negative rho (up, down):  7.802E-04 0.000E+00

     total cpu time spent up to now is      787.3 secs

     Self-consistent Calculation

     iteration #  1     ecut=    40.00 Ry     beta= 0.70
     Davidson diagonalization with overlap
     ethr =  1.00E-06,  avg # of iterations =  6.1

     negative rho (up, down):  7.892E-04 0.000E+00

     total cpu time spent up to now is      788.8 secs

     total energy              =    -471.89882005 Ry
     estimated scf accuracy    <       0.00014330 Ry

     iteration #  2     ecut=    40.00 Ry     beta= 0.70
     Davidson diagonalization with overlap
     ethr =  3.41E-07,  avg # of iterations =  4.6

     negative rho (up, down):  7.977E-04 0.000E+00

     total cpu time spent up to now is      789.9 secs

     total energy              =    -471.89862680 Ry
     estimated scf accuracy    <       0.00275870 Ry

     iteration #  3     ecut=    40.00 Ry     beta= 0.70
     Davidson diagonalization with overlap
     ethr =  3.41E-07,  avg # of iterations =  3.3

     negative rho (up, down):  7.988E-04 0.000E+00

     total cpu time spent up to now is      790.8 secs

     total energy              =    -471.89882073 Ry
     estimated scf accuracy    <       0.00046049 Ry

     iteration #  4     ecut=    40.00 Ry     beta= 0.70
     Davidson diagonalization with overlap
     ethr =  3.41E-07,  avg # of iterations =  5.7

     negative rho (up, down):  8.004E-04 0.000E+00

     total cpu time spent up to now is      791.8 secs

     total energy              =    -471.89880012 Ry
     estimated scf accuracy    <       0.00138089 Ry

     iteration #  5     ecut=    40.00 Ry     beta= 0.70
     Davidson diagonalization with overlap
     ethr =  3.41E-07,  avg # of iterations =  5.2

     negative rho (up, down):  7.917E-04 0.000E+00

     total cpu time spent up to now is      792.7 secs

     total energy              =    -471.89885936 Ry
     estimated scf accuracy    <       0.00040028 Ry

     iteration #  6     ecut=    40.00 Ry     beta= 0.70
     Davidson diagonalization with overlap
     ethr =  3.41E-07,  avg # of iterations =  1.1

     negative rho (up, down):  7.818E-04 0.000E+00

     total cpu time spent up to now is      793.4 secs

     total energy              =    -471.89888991 Ry
     estimated scf accuracy    <       0.00000552 Ry

     iteration #  7     ecut=    40.00 Ry     beta= 0.70
     Davidson diagonalization with overlap
     ethr =  1.32E-08,  avg # of iterations =  6.5

     negative rho (up, down):  7.787E-04 0.000E+00

     total cpu time spent up to now is      794.5 secs

     total energy              =    -471.89889427 Ry
     estimated scf accuracy    <       0.00000206 Ry

     iteration #  8     ecut=    40.00 Ry     beta= 0.70
     Davidson diagonalization with overlap
     ethr =  4.91E-09,  avg # of iterations =  2.3

     negative rho (up, down):  7.791E-04 0.000E+00

     total cpu time spent up to now is      795.4 secs

     total energy              =    -471.89889449 Ry
     estimated scf accuracy    <       0.00000032 Ry

     iteration #  9     ecut=    40.00 Ry     beta= 0.70
     Davidson diagonalization with overlap
     ethr =  7.70E-10,  avg # of iterations =  7.1

     negative rho (up, down):  7.794E-04 0.000E+00

     total cpu time spent up to now is      796.5 secs

     total energy              =    -471.89889463 Ry
     estimated scf accuracy    <       0.00000007 Ry

     iteration # 10     ecut=    40.00 Ry     beta= 0.70
     Davidson diagonalization with overlap
     ethr =  1.70E-10,  avg # of iterations =  2.2

     negative rho (up, down):  7.795E-04 0.000E+00

     total cpu time spent up to now is      797.3 secs

     total energy              =    -471.89889463 Ry
     estimated scf accuracy    <       0.00000002 Ry

     iteration # 11     ecut=    40.00 Ry     beta= 0.70
     Davidson diagonalization with overlap
     ethr =  4.71E-11,  avg # of iterations =  4.4

     negative rho (up, down):  7.795E-04 0.000E+00

     total cpu time spent up to now is      798.2 secs

     total energy              =    -471.89889463 Ry
     estimated scf accuracy    <          3.2E-09 Ry

     iteration # 12     ecut=    40.00 Ry     beta= 0.70
     Davidson diagonalization with overlap
     ethr =  7.60E-12,  avg # of iterations =  6.5

     negative rho (up, down):  7.795E-04 0.000E+00

     total cpu time spent up to now is      799.4 secs

     total energy              =    -471.89889463 Ry
     estimated scf accuracy    <          6.0E-10 Ry

     iteration # 13     ecut=    40.00 Ry     beta= 0.70
     Davidson diagonalization with overlap
     ethr =  1.44E-12,  avg # of iterations =  4.9

     negative rho (up, down):  7.795E-04 0.000E+00

     total cpu time spent up to now is      800.4 secs

     total energy              =    -471.89889463 Ry
     estimated scf accuracy    <          2.0E-09 Ry

     iteration # 14     ecut=    40.00 Ry     beta= 0.70
     Davidson diagonalization with overlap
     ethr =  1.44E-12,  avg # of iterations =  1.6

     negative rho (up, down):  7.795E-04 0.000E+00

     total cpu time spent up to now is      801.2 secs

     total energy              =    -471.89889463 Ry
     estimated scf accuracy    <          2.1E-10 Ry

     iteration # 15     ecut=    40.00 Ry     beta= 0.70
     Davidson diagonalization with overlap
     ethr =  4.99E-13,  avg # of iterations =  3.9

     negative rho (up, down):  7.795E-04 0.000E+00

     total cpu time spent up to now is      802.2 secs

     End of self-consistent calculation

          k = 0.0000 0.0000 0.0000 (  5509 PWs)   bands (ev):

   -55.4379 -55.3700 -31.9404 -31.5746 -31.5153 -31.5087 -31.4669 -31.4627
   -19.6908 -19.6613  -9.9961  -7.8394  -6.8431  -3.0845  -3.0671  -2.7851
    -2.7549  -2.0869  -0.0631  -0.0513   1.9477   2.2071   2.2182   2.2969
     2.4140

          k = 0.0000 0.2887 0.0000 (  5504 PWs)   bands (ev):

   -55.4029 -55.3525 -31.8773 -31.7626 -31.6472 -31.5725 -31.5352 -31.4904
   -19.4997 -19.4839  -9.2438  -7.4822  -7.1685  -4.0106  -3.6170  -3.0478
    -2.9140  -1.8485  -1.4874  -0.5237   1.1281   2.8538   3.1158   3.1522
     3.5638

          k = 0.0000-0.5773 0.0000 (  5552 PWs)   bands (ev):

   -55.3620 -55.3407 -31.9828 -31.9093 -31.6733 -31.6294 -31.5694 -31.5224
   -19.3183 -19.3038  -8.4529  -7.2659  -7.0899  -5.0303  -4.6045  -3.2022
    -3.0556  -2.5717  -1.2413  -0.5625   0.2845   3.7132   4.1396   4.5209
     4.5520

          k = 0.2500 0.1443 0.0000 (  5504 PWs)   bands (ev):

   -55.4030 -55.3523 -31.8769 -31.7624 -31.6477 -31.5737 -31.5350 -31.4904
   -19.4996 -19.4836  -9.2417  -7.4816  -7.1799  -4.0137  -3.6178  -3.0258
    -2.8989  -1.8438  -1.4983  -0.5257   1.1232   2.8480   3.1196   3.1557
     3.5564

          k = 0.2500 0.4330 0.0000 (  5528 PWs)   bands (ev):

   -55.3624 -55.3402 -31.8954 -31.8615 -31.7419 -31.6286 -31.6195 -31.5471
   -19.3167 -19.3024  -8.4001  -7.2382  -7.2177  -4.4280  -4.4188  -3.4782
    -3.4572  -2.3448  -1.7022  -1.2639   2.2915   2.4308   3.7772   4.1533
     4.2655

          k = 0.2500-0.4330 0.0000 (  5528 PWs)   bands (ev):

   -55.3626 -55.3400 -31.8918 -31.8588 -31.7417 -31.6322 -31.6259 -31.5433
   -19.3162 -19.3023  -8.4021  -7.2410  -7.2152  -4.4346  -4.4186  -3.4824
    -3.4580  -2.3436  -1.7005  -1.2536   2.2976   2.4431   3.7733   4.1553
     4.2764

          k = 0.2500-0.1443 0.0000 (  5504 PWs)   bands (ev):

   -55.4032 -55.3522 -31.8768 -31.7590 -31.6446 -31.5775 -31.5339 -31.4941
   -19.4994 -19.4835  -9.2416  -7.4831  -7.1799  -4.0150  -3.6141  -3.0407
    -2.9126  -1.8411  -1.4788  -0.5131   1.1372   2.8390   3.1148   3.1516
     3.5563

          k =-0.5000-0.2887 0.0000 (  5552 PWs)   bands (ev):

   -55.3626 -55.3400 -31.9822 -31.9104 -31.6752 -31.6304 -31.5676 -31.5226
   -19.3186 -19.3032  -8.4497  -7.2669  -7.1077  -5.0314  -4.5991  -3.1828
    -3.0396  -2.5548  -1.2483  -0.5597   0.2749   3.7000   4.1436   4.5131
     4.5496

          k =-0.5000-0.0000 0.0000 (  5528 PWs)   bands (ev):

   -55.3629 -55.3397 -31.8919 -31.8581 -31.7446 -31.6316 -31.6260 -31.5424
   -19.3164 -19.3020  -8.4022  -7.2435  -7.2207  -4.4254  -4.4185  -3.4830
    -3.4511  -2.3215  -1.7027  -1.2632   2.3016   2.4348   3.7699   4.1468
     4.2642

          k =-0.5000-0.8660 0.0000 (  5552 PWs)   bands (ev):

   -55.3631 -55.3396 -31.9805 -31.9030 -31.6806 -31.6340 -31.5633 -31.5264
   -19.3177 -19.3031  -8.4507  -7.2664  -7.1101  -5.0433  -4.5981  -3.1981
    -3.0532  -2.5389  -1.2241  -0.5472   0.2886   3.6848   4.1466   4.5143
     4.5477

     the Fermi energy is     2.3235 ev

!    total energy              =    -471.89889463 Ry
     total all-electron energy =     -3795.202584 Ry
     estimated scf accuracy    <          5.9E-11 Ry
     smearing contrib. (-TS)   =      -0.00532805 Ry
     internal energy E=F+TS    =    -471.89356658 Ry

     The total energy is F=E-TS. E is the sum of the following terms:
     one-electron contribution =   -3272.10867535 Ry
     hartree contribution      =    1642.10213245 Ry
     xc contribution           =     -58.26242027 Ry
     ewald contribution        =    1372.36166248 Ry
     one-center paw contrib.   =    -155.98626589 Ry

     convergence has been achieved in  15 iterations

     negative rho (up, down):  7.795E-04 0.000E+00

     Forces acting on atoms (cartesian axes, Ry/au):

     atom    1 type  1   force =     0.00119945   -0.00213881   -0.00010955
     atom    2 type  1   force =    -0.00135455   -0.00046404   -0.00156937
     atom    3 type  2   force =     0.00062289   -0.00071969    0.00083930
     atom    4 type  3   force =    -0.00219368    0.00263074    0.00323901
     atom    5 type  3   force =    -0.00356620   -0.00012478   -0.00370934
     atom    6 type  4   force =     0.00228700    0.00069897    0.00204571
     atom    7 type  4   force =     0.00300509    0.00011760   -0.00073576

     Total force =     0.008964     Total SCF correction =     0.000046
     Energy error            =      1.6E-04 Ry
     Gradient error          =      3.7E-03 Ry/Bohr

     number of scf cycles    =  42
     number of bfgs steps    =  41

     energy             old  =    -471.8987364252 Ry
     energy             new  =    -471.8988946346 Ry

     CASE: energy            _new < energy            _old

     new trust radius        =       0.0238399059 bohr
     new conv_thr            =       0.0000000002 Ry


ATOMIC_POSITIONS (angstrom)
Ti              -0.2960617707        1.7748676791        3.1261816296
Ti               1.2347306955        0.8845904190        5.4355048428
C                2.7531600852        0.0111559355        4.2801443556
O               -0.2935619297        1.7519878580        6.7053378796
O                1.2354648331        0.8882050426        1.8618821437
H                1.1670414333        0.8712947853        0.8884514989
H               -0.3814233466        1.7639582804        7.6759776498



     Writing config-only to output data dir ./tmp/ti2coh2.save/ :
     XML data file
     NEW-OLD atomic charge density approx. for the potential

     Check: negative core charge=   -0.000005

     negative rho (up, down):  7.807E-04 0.000E+00

     total cpu time spent up to now is      802.8 secs

     Self-consistent Calculation

     iteration #  1     ecut=    40.00 Ry     beta= 0.70
     Davidson diagonalization with overlap
     ethr =  1.00E-06,  avg # of iterations =  4.3

     negative rho (up, down):  7.877E-04 0.000E+00

     total cpu time spent up to now is      804.2 secs

     total energy              =    -471.89893322 Ry
     estimated scf accuracy    <       0.00005609 Ry

     iteration #  2     ecut=    40.00 Ry     beta= 0.70
     Davidson diagonalization with overlap
     ethr =  1.34E-07,  avg # of iterations =  7.5

     negative rho (up, down):  7.904E-04 0.000E+00

     total cpu time spent up to now is      805.6 secs

     total energy              =    -471.89882415 Ry
     estimated scf accuracy    <       0.00224179 Ry

     iteration #  3     ecut=    40.00 Ry     beta= 0.70
     Davidson diagonalization with overlap
     ethr =  1.34E-07,  avg # of iterations =  7.8

     negative rho (up, down):  7.911E-04 0.000E+00

     total cpu time spent up to now is      806.7 secs

     total energy              =    -471.89892729 Ry
     estimated scf accuracy    <       0.00036091 Ry

     iteration #  4     ecut=    40.00 Ry     beta= 0.70
     Davidson diagonalization with overlap
     ethr =  1.34E-07,  avg # of iterations =  7.7

     negative rho (up, down):  7.882E-04 0.000E+00

     total cpu time spent up to now is      807.7 secs

     total energy              =    -471.89894404 Ry
     estimated scf accuracy    <       0.00050404 Ry

     iteration #  5     ecut=    40.00 Ry     beta= 0.70
     Davidson diagonalization with overlap
     ethr =  1.34E-07,  avg # of iterations =  2.4

     negative rho (up, down):  7.849E-04 0.000E+00

     total cpu time spent up to now is      811.1 secs

     total energy              =    -471.89896346 Ry
     estimated scf accuracy    <       0.00006105 Ry

     iteration #  6     ecut=    40.00 Ry     beta= 0.70
     Davidson diagonalization with overlap
     ethr =  1.34E-07,  avg # of iterations =  2.4

     negative rho (up, down):  7.800E-04 0.000E+00

     total cpu time spent up to now is      812.0 secs

     total energy              =    -471.89897232 Ry
     estimated scf accuracy    <       0.00000771 Ry

     iteration #  7     ecut=    40.00 Ry     beta= 0.70
     Davidson diagonalization with overlap
     ethr =  1.84E-08,  avg # of iterations =  7.3

     negative rho (up, down):  7.790E-04 0.000E+00

     total cpu time spent up to now is      813.1 secs

     total energy              =    -471.89897456 Ry
     estimated scf accuracy    <       0.00000220 Ry

     iteration #  8     ecut=    40.00 Ry     beta= 0.70
     Davidson diagonalization with overlap
     ethr =  5.24E-09,  avg # of iterations =  2.4

     negative rho (up, down):  7.789E-04 0.000E+00

     total cpu time spent up to now is      813.9 secs

     total energy              =    -471.89897476 Ry
     estimated scf accuracy    <       0.00000029 Ry

     iteration #  9     ecut=    40.00 Ry     beta= 0.70
     Davidson diagonalization with overlap
     ethr =  6.97E-10,  avg # of iterations =  6.4

     negative rho (up, down):  7.791E-04 0.000E+00

     total cpu time spent up to now is      814.9 secs

     total energy              =    -471.89897484 Ry
     estimated scf accuracy    <       0.00000003 Ry

     iteration # 10     ecut=    40.00 Ry     beta= 0.70
     Davidson diagonalization with overlap
     ethr =  7.19E-11,  avg # of iterations =  6.0

     negative rho (up, down):  7.793E-04 0.000E+00

     total cpu time spent up to now is      816.1 secs

     total energy              =    -471.89897485 Ry
     estimated scf accuracy    <       0.00000003 Ry

     iteration # 11     ecut=    40.00 Ry     beta= 0.70
     Davidson diagonalization with overlap
     ethr =  6.78E-11,  avg # of iterations =  1.2

     negative rho (up, down):  7.793E-04 0.000E+00

     total cpu time spent up to now is      816.9 secs

     total energy              =    -471.89897485 Ry
     estimated scf accuracy    <          7.7E-09 Ry

     iteration # 12     ecut=    40.00 Ry     beta= 0.70
     Davidson diagonalization with overlap
     ethr =  1.83E-11,  avg # of iterations =  3.3

     negative rho (up, down):  7.793E-04 0.000E+00

     total cpu time spent up to now is      817.7 secs

     total energy              =    -471.89897486 Ry
     estimated scf accuracy    <          6.6E-10 Ry

     iteration # 13     ecut=    40.00 Ry     beta= 0.70
     Davidson diagonalization with overlap
     ethr =  1.58E-12,  avg # of iterations =  7.0

     negative rho (up, down):  7.793E-04 0.000E+00

     total cpu time spent up to now is      818.9 secs

     total energy              =    -471.89897486 Ry
     estimated scf accuracy    <          1.0E-09 Ry

     iteration # 14     ecut=    40.00 Ry     beta= 0.70
     Davidson diagonalization with overlap
     ethr =  1.58E-12,  avg # of iterations =  1.8

     negative rho (up, down):  7.793E-04 0.000E+00

     total cpu time spent up to now is      819.7 secs

     total energy              =    -471.89897486 Ry
     estimated scf accuracy    <          2.9E-10 Ry

     iteration # 15     ecut=    40.00 Ry     beta= 0.70
     Davidson diagonalization with overlap
     ethr =  6.97E-13,  avg # of iterations =  3.5

     negative rho (up, down):  7.793E-04 0.000E+00

     total cpu time spent up to now is      820.6 secs

     End of self-consistent calculation

          k = 0.0000 0.0000 0.0000 (  5509 PWs)   bands (ev):

   -55.4335 -55.3650 -31.9373 -31.5691 -31.5110 -31.5038 -31.4617 -31.4581
   -19.6861 -19.6574  -9.9951  -7.8351  -6.8369  -3.0741  -3.0627  -2.7686
    -2.7451  -2.0923  -0.0680  -0.0568   1.9549   2.2084   2.2161   2.2986
     2.4164

          k = 0.0000 0.2887 0.0000 (  5504 PWs)   bands (ev):

   -55.3985 -55.3475 -31.8744 -31.7587 -31.6421 -31.5681 -31.5297 -31.4850
   -19.4948 -19.4804  -9.2427  -7.4776  -7.1642  -4.0018  -3.6075  -3.0343
    -2.9026  -1.8506  -1.4908  -0.5289   1.1269   2.8579   3.1199   3.1536
     3.5691

          k = 0.0000-0.5773 0.0000 (  5552 PWs)   bands (ev):

   -55.3574 -55.3358 -31.9791 -31.9059 -31.6682 -31.6251 -31.5644 -31.5169
   -19.3140 -19.3000  -8.4535  -7.2611  -7.0852  -5.0234  -4.5958  -3.1892
    -3.0442  -2.5689  -1.2410  -0.5661   0.2815   3.7244   4.1417   4.5247
     4.5571

          k = 0.2500 0.1443 0.0000 (  5504 PWs)   bands (ev):

   -55.3986 -55.3473 -31.8740 -31.7582 -31.6420 -31.5694 -31.5295 -31.4856
   -19.4945 -19.4804  -9.2405  -7.4775  -7.1739  -4.0052  -3.6073  -3.0223
    -2.8888  -1.8466  -1.4956  -0.5299   1.1260   2.8511   3.1231   3.1551
     3.5640

          k = 0.2500 0.4330 0.0000 (  5528 PWs)   bands (ev):

   -55.3577 -55.3354 -31.8920 -31.8575 -31.7378 -31.6226 -31.6150 -31.5419
   -19.3117 -19.2991  -8.4004  -7.2367  -7.2086  -4.4277  -4.4037  -3.4770
    -3.4410  -2.3444  -1.7024  -1.2604   2.2881   2.4321   3.7847   4.1570
     4.2754

          k = 0.2500-0.4330 0.0000 (  5528 PWs)   bands (ev):

   -55.3580 -55.3351 -31.8882 -31.8550 -31.7384 -31.6267 -31.6204 -31.5379
   -19.3118 -19.2985  -8.4026  -7.2337  -7.2125  -4.4279  -4.4077  -3.4708
    -3.4505  -2.3395  -1.7008  -1.2525   2.2942   2.4422   3.7782   4.1564
     4.2825

          k = 0.2500-0.1443 0.0000 (  5504 PWs)   bands (ev):

   -55.3987 -55.3472 -31.8738 -31.7548 -31.6394 -31.5734 -31.5284 -31.4888
   -19.4945 -19.4800  -9.2408  -7.4778  -7.1754  -4.0057  -3.6049  -3.0331
    -2.8982  -1.8421  -1.4815  -0.5175   1.1364   2.8434   3.1193   3.1520
     3.5616

          k =-0.5000-0.2887 0.0000 (  5552 PWs)   bands (ev):

   -55.3579 -55.3352 -31.9784 -31.9058 -31.6702 -31.6263 -31.5627 -31.5176
   -19.3131 -19.3004  -8.4502  -7.2615  -7.0998  -5.0299  -4.5898  -3.1790
    -3.0303  -2.5522  -1.2428  -0.5632   0.2778   3.7135   4.1449   4.5185
     4.5551

          k =-0.5000-0.0000 0.0000 (  5528 PWs)   bands (ev):

   -55.3583 -55.3348 -31.8880 -31.8539 -31.7406 -31.6271 -31.6209 -31.5369
   -19.3113 -19.2989  -8.4028  -7.2382  -7.2144  -4.4276  -4.4020  -3.4784
    -3.4393  -2.3209  -1.7026  -1.2590   2.2984   2.4371   3.7763   4.1508
     4.2743

          k =-0.5000-0.8660 0.0000 (  5552 PWs)   bands (ev):

   -55.3585 -55.3346 -31.9765 -31.8992 -31.6760 -31.6301 -31.5579 -31.5211
   -19.3132 -19.2995  -8.4517  -7.2604  -7.1049  -5.0350  -4.5912  -3.1905
    -3.0395  -2.5354  -1.2220  -0.5499   0.2857   3.6946   4.1491   4.5178
     4.5527

     the Fermi energy is     2.3224 ev

!    total energy              =    -471.89897486 Ry
     total all-electron energy =     -3795.202664 Ry
     estimated scf accuracy    <          1.4E-11 Ry
     smearing contrib. (-TS)   =      -0.00530176 Ry
     internal energy E=F+TS    =    -471.89367309 Ry

     The total energy is F=E-TS. E is the sum of the following terms:
     one-electron contribution =   -3273.21674911 Ry
     hartree contribution      =    1642.66467188 Ry
     xc contribution           =     -58.26542306 Ry
     ewald contribution        =    1372.91016340 Ry
     one-center paw contrib.   =    -155.98633620 Ry

     convergence has been achieved in  15 iterations

     negative rho (up, down):  7.793E-04 0.000E+00

     Forces acting on atoms (cartesian axes, Ry/au):

     atom    1 type  1   force =     0.00127506   -0.00206431   -0.00020890
     atom    2 type  1   force =    -0.00161636   -0.00014078    0.00172883
     atom    3 type  2   force =    -0.00024488   -0.00140738    0.00062834
     atom    4 type  3   force =    -0.00145522    0.00264856   -0.00035475
     atom    5 type  3   force =    -0.00256714    0.00050778   -0.00381976
     atom    6 type  4   force =     0.00215584    0.00052475    0.00107898
     atom    7 type  4   force =     0.00245270   -0.00006863    0.00094726

     Total force =     0.007595     Total SCF correction =     0.000008
     Energy error            =      8.0E-05 Ry
     Gradient error          =      3.8E-03 Ry/Bohr

     number of scf cycles    =  43
     number of bfgs steps    =  42

     energy             old  =    -471.8988946346 Ry
     energy             new  =    -471.8989748561 Ry

     CASE: energy            _new < energy            _old

     new trust radius        =       0.0265681019 bohr
     new conv_thr            =            1.0E-10 Ry


ATOMIC_POSITIONS (angstrom)
Ti              -0.2963778487        1.7715384633        3.1256596321
Ti               1.2340444669        0.8837782843        5.4333169035
C                2.7538221543        0.0098716205        4.2794075958
O               -0.2966032597        1.7530415851        6.7056139181
O                1.2291332026        0.8836846200        1.8623571670
H                1.1649184423        0.8727856133        0.8894786005
H               -0.3695871578        1.7713598136        7.6776461830



     Writing config-only to output data dir ./tmp/ti2coh2.save/ :
     XML data file
     NEW-OLD atomic charge density approx. for the potential

     Check: negative core charge=   -0.000005

     negative rho (up, down):  7.795E-04 0.000E+00

     total cpu time spent up to now is      821.2 secs

     Self-consistent Calculation

     iteration #  1     ecut=    40.00 Ry     beta= 0.70
     Davidson diagonalization with overlap
     ethr =  1.00E-06,  avg # of iterations =  4.4

     Threshold (ethr) on eigenvalues was too large:
     Diagonalizing with lowered threshold

     Davidson diagonalization with overlap
     ethr =  9.39E-08,  avg # of iterations =  4.6

     negative rho (up, down):  7.826E-04 0.000E+00

     total cpu time spent up to now is      823.3 secs

     total energy              =    -471.89903319 Ry
     estimated scf accuracy    <       0.00004197 Ry

     iteration #  2     ecut=    40.00 Ry     beta= 0.70
     Davidson diagonalization with overlap
     ethr =  9.99E-08,  avg # of iterations =  2.5

     negative rho (up, down):  7.815E-04 0.000E+00

     total cpu time spent up to now is      824.3 secs

     total energy              =    -471.89900204 Ry
     estimated scf accuracy    <       0.00025635 Ry

     iteration #  3     ecut=    40.00 Ry     beta= 0.70
     Davidson diagonalization with overlap
     ethr =  9.99E-08,  avg # of iterations =  3.2

     negative rho (up, down):  7.821E-04 0.000E+00

     total cpu time spent up to now is      825.2 secs

     total energy              =    -471.89901792 Ry
     estimated scf accuracy    <       0.00035632 Ry

     iteration #  4     ecut=    40.00 Ry     beta= 0.70
     Davidson diagonalization with overlap
     ethr =  9.99E-08,  avg # of iterations =  7.5

     negative rho (up, down):  7.843E-04 0.000E+00

     total cpu time spent up to now is      826.2 secs

     total energy              =    -471.89901539 Ry
     estimated scf accuracy    <       0.00057213 Ry

     iteration #  5     ecut=    40.00 Ry     beta= 0.70
     Davidson diagonalization with overlap
     ethr =  9.99E-08,  avg # of iterations =  6.0

     negative rho (up, down):  7.826E-04 0.000E+00

     total cpu time spent up to now is      827.1 secs

     total energy              =    -471.89903983 Ry
     estimated scf accuracy    <       0.00007924 Ry

     iteration #  6     ecut=    40.00 Ry     beta= 0.70
     Davidson diagonalization with overlap
     ethr =  9.99E-08,  avg # of iterations =  1.4

     negative rho (up, down):  7.790E-04 0.000E+00

     total cpu time spent up to now is      828.0 secs

     total energy              =    -471.89904762 Ry
     estimated scf accuracy    <       0.00000120 Ry

     iteration #  7     ecut=    40.00 Ry     beta= 0.70
     Davidson diagonalization with overlap
     ethr =  2.86E-09,  avg # of iterations =  8.4

     negative rho (up, down):  7.786E-04 0.000E+00

     total cpu time spent up to now is      829.1 secs

     total energy              =    -471.89904850 Ry
     estimated scf accuracy    <       0.00000165 Ry

     iteration #  8     ecut=    40.00 Ry     beta= 0.70
     Davidson diagonalization with overlap
     ethr =  2.86E-09,  avg # of iterations =  2.0

     negative rho (up, down):  7.786E-04 0.000E+00

     total cpu time spent up to now is      829.9 secs

     total energy              =    -471.89904854 Ry
     estimated scf accuracy    <       0.00000066 Ry

     iteration #  9     ecut=    40.00 Ry     beta= 0.70
     Davidson diagonalization with overlap
     ethr =  1.57E-09,  avg # of iterations =  2.2

     negative rho (up, down):  7.786E-04 0.000E+00

     total cpu time spent up to now is      830.7 secs

     total energy              =    -471.89904858 Ry
     estimated scf accuracy    <       0.00000016 Ry

     iteration # 10     ecut=    40.00 Ry     beta= 0.70
     Davidson diagonalization with overlap
     ethr =  3.74E-10,  avg # of iterations =  6.6

     negative rho (up, down):  7.787E-04 0.000E+00

     total cpu time spent up to now is      831.7 secs

     total energy              =    -471.89904861 Ry
     estimated scf accuracy    <       0.00000002 Ry

     iteration # 11     ecut=    40.00 Ry     beta= 0.70
     Davidson diagonalization with overlap
     ethr =  5.14E-11,  avg # of iterations =  5.5

     negative rho (up, down):  7.787E-04 0.000E+00

     total cpu time spent up to now is      832.7 secs

     total energy              =    -471.89904862 Ry
     estimated scf accuracy    <          6.2E-09 Ry

     iteration # 12     ecut=    40.00 Ry     beta= 0.70
     Davidson diagonalization with overlap
     ethr =  1.46E-11,  avg # of iterations =  1.9

     negative rho (up, down):  7.788E-04 0.000E+00

     total cpu time spent up to now is      833.5 secs

     total energy              =    -471.89904862 Ry
     estimated scf accuracy    <          3.9E-09 Ry

     iteration # 13     ecut=    40.00 Ry     beta= 0.70
     Davidson diagonalization with overlap
     ethr =  9.40E-12,  avg # of iterations =  3.2

     negative rho (up, down):  7.788E-04 0.000E+00

     total cpu time spent up to now is      834.4 secs

     total energy              =    -471.89904862 Ry
     estimated scf accuracy    <          1.0E-09 Ry

     iteration # 14     ecut=    40.00 Ry     beta= 0.70
     Davidson diagonalization with overlap
     ethr =  2.41E-12,  avg # of iterations =  5.2

     negative rho (up, down):  7.788E-04 0.000E+00

     total cpu time spent up to now is      835.4 secs

     total energy              =    -471.89904862 Ry
     estimated scf accuracy    <          3.5E-10 Ry

     iteration # 15     ecut=    40.00 Ry     beta= 0.70
     Davidson diagonalization with overlap
     ethr =  8.32E-13,  avg # of iterations =  3.5

     negative rho (up, down):  7.788E-04 0.000E+00

     total cpu time spent up to now is      836.3 secs

     total energy              =    -471.89904862 Ry
     estimated scf accuracy    <          1.3E-10 Ry

     iteration # 16     ecut=    40.00 Ry     beta= 0.70
     Davidson diagonalization with overlap
     ethr =  3.14E-13,  avg # of iterations =  5.4

     negative rho (up, down):  7.788E-04 0.000E+00

     total cpu time spent up to now is      837.4 secs

     total energy              =    -471.89904862 Ry
     estimated scf accuracy    <          1.5E-10 Ry

     iteration # 17     ecut=    40.00 Ry     beta= 0.70
     Davidson diagonalization with overlap
     ethr =  3.14E-13,  avg # of iterations =  1.2

     negative rho (up, down):  7.788E-04 0.000E+00

     total cpu time spent up to now is      838.2 secs

     End of self-consistent calculation

          k = 0.0000 0.0000 0.0000 (  5509 PWs)   bands (ev):

   -55.4316 -55.3626 -31.9360 -31.5664 -31.5084 -31.5022 -31.4591 -31.4563
   -19.6911 -19.6451  -9.9947  -7.8326  -6.8332  -3.0675  -3.0623  -2.7545
    -2.7382  -2.0975  -0.0691  -0.0603   1.9579   2.2097   2.2142   2.2989
     2.4170

          k = 0.0000 0.2887 0.0000 (  5504 PWs)   bands (ev):

   -55.3965 -55.3452 -31.8730 -31.7567 -31.6395 -31.5665 -31.5271 -31.4828
   -19.5036 -19.4643  -9.2420  -7.4752  -7.1616  -3.9971  -3.6008  -3.0275
    -2.8915  -1.8511  -1.4939  -0.5307   1.1258   2.8588   3.1215   3.1543
     3.5706

          k = 0.0000-0.5773 0.0000 (  5552 PWs)   bands (ev):

   -55.3555 -55.3335 -31.9773 -31.9040 -31.6664 -31.6235 -31.5616 -31.5147
   -19.3234 -19.2833  -8.4537  -7.2588  -7.0815  -5.0203  -4.5898  -3.1824
    -3.0335  -2.5655  -1.2406  -0.5665   0.2785   3.7271   4.1434   4.5256
     4.5591

          k = 0.2500 0.1443 0.0000 (  5504 PWs)   bands (ev):

   -55.3966 -55.3451 -31.8728 -31.7560 -31.6391 -31.5677 -31.5269 -31.4836
   -19.5032 -19.4645  -9.2399  -7.4753  -7.1695  -4.0008  -3.5995  -3.0256
    -2.8788  -1.8485  -1.4926  -0.5312   1.1285   2.8515   3.1238   3.1539
     3.5679

          k = 0.2500 0.4330 0.0000 (  5528 PWs)   bands (ev):

   -55.3557 -55.3332 -31.8899 -31.8552 -31.7362 -31.6203 -31.6138 -31.5390
   -19.3213 -19.2824  -8.4009  -7.2413  -7.1966  -4.4335  -4.3888  -3.4811
    -3.4260  -2.3423  -1.7025  -1.2583   2.2868   2.4336   3.7868   4.1581
     4.2805

          k = 0.2500-0.4330 0.0000 (  5528 PWs)   bands (ev):

   -55.3560 -55.3329 -31.8870 -31.8533 -31.7372 -31.6237 -31.6176 -31.5357
   -19.3216 -19.2817  -8.4029  -7.2371  -7.2018  -4.4321  -4.3923  -3.4736
    -3.4349  -2.3376  -1.7012  -1.2531   2.2915   2.4407   3.7798   4.1562
     4.2845

          k = 0.2500-0.1443 0.0000 (  5504 PWs)   bands (ev):

   -55.3967 -55.3450 -31.8726 -31.7533 -31.6373 -31.5710 -31.5260 -31.4860
   -19.5033 -19.4641  -9.2406  -7.4749  -7.1710  -4.0003  -3.5987  -3.0290
    -2.8875  -1.8439  -1.4848  -0.5211   1.1345   2.8464   3.1217   3.1517
     3.5649

          k =-0.5000-0.2887 0.0000 (  5552 PWs)   bands (ev):

   -55.3558 -55.3331 -31.9766 -31.9032 -31.6681 -31.6247 -31.5601 -31.5156
   -19.3224 -19.2839  -8.4505  -7.2588  -7.0931  -5.0307  -4.5841  -3.1815
    -3.0214  -2.5501  -1.2379  -0.5645   0.2805   3.7199   4.1455   4.5216
     4.5576

          k =-0.5000-0.0000 0.0000 (  5528 PWs)   bands (ev):

   -55.3561 -55.3327 -31.8864 -31.8523 -31.7384 -31.6249 -31.6180 -31.5347
   -19.3210 -19.2821  -8.4029  -7.2418  -7.2021  -4.4327  -4.3884  -3.4804
    -3.4273  -2.3231  -1.7025  -1.2565   2.2956   2.4381   3.7803   4.1538
     4.2801

          k =-0.5000-0.8660 0.0000 (  5552 PWs)   bands (ev):

   -55.3564 -55.3325 -31.9750 -31.8982 -31.6730 -31.6278 -31.5561 -31.5182
   -19.3228 -19.2829  -8.4524  -7.2578  -7.0982  -5.0294  -4.5868  -3.1859
    -3.0298  -2.5375  -1.2235  -0.5531   0.2832   3.7029   4.1494   4.5201
     4.5554

     the Fermi energy is     2.3215 ev

!    total energy              =    -471.89904862 Ry
     total all-electron energy =     -3795.202738 Ry
     estimated scf accuracy    <          2.1E-11 Ry
     smearing contrib. (-TS)   =      -0.00528760 Ry
     internal energy E=F+TS    =    -471.89376102 Ry

     The total energy is F=E-TS. E is the sum of the following terms:
     one-electron contribution =   -3273.64365347 Ry
     hartree contribution      =    1642.88263072 Ry
     xc contribution           =     -58.26657638 Ry
     ewald contribution        =    1373.12021093 Ry
     one-center paw contrib.   =    -155.98637283 Ry

     convergence has been achieved in  17 iterations

     negative rho (up, down):  7.788E-04 0.000E+00

     Forces acting on atoms (cartesian axes, Ry/au):

     atom    1 type  1   force =     0.00078228   -0.00154600   -0.00015880
     atom    2 type  1   force =    -0.00175984   -0.00003898    0.00365563
     atom    3 type  2   force =    -0.00098616   -0.00179339    0.00038703
     atom    4 type  3   force =    -0.00070616    0.00240099   -0.00084381
     atom    5 type  3   force =    -0.00138554    0.00092147   -0.00262071
     atom    6 type  4   force =     0.00196234    0.00033218   -0.00066585
     atom    7 type  4   force =     0.00209307   -0.00027626    0.00024651

     Total force =     0.007026     Total SCF correction =     0.000021
     Energy error            =      7.4E-05 Ry
     Gradient error          =      3.7E-03 Ry/Bohr

     number of scf cycles    =  44
     number of bfgs steps    =  43

     energy             old  =    -471.8989748561 Ry
     energy             new  =    -471.8990486177 Ry

     CASE: energy            _new < energy            _old

     new trust radius        =       0.0284880811 bohr
     new conv_thr            =            1.0E-10 Ry


ATOMIC_POSITIONS (angstrom)
Ti              -0.2960649874        1.7663224873        3.1248227985
Ti               1.2314660086        0.8829227731        5.4332022264
C                2.7539424197        0.0070208873        4.2792268940
O               -0.2998752169        1.7582772657        6.7070868675
O                1.2207531403        0.8789914242        1.8611738800
H                1.1647611384        0.8756421527        0.8888981725
H               -0.3556325027        1.7768830097        7.6790691610



     Writing config-only to output data dir ./tmp/ti2coh2.save/ :
     XML data file
     NEW-OLD atomic charge density approx. for the potential

     Check: negative core charge=   -0.000005

     negative rho (up, down):  7.777E-04 0.000E+00

     total cpu time spent up to now is      838.8 secs

     Self-consistent Calculation

     iteration #  1     ecut=    40.00 Ry     beta= 0.70
     Davidson diagonalization with overlap
     ethr =  1.00E-06,  avg # of iterations =  5.7

     negative rho (up, down):  7.761E-04 0.000E+00

     total cpu time spent up to now is      840.4 secs

     total energy              =    -471.89910867 Ry
     estimated scf accuracy    <       0.00007099 Ry

     iteration #  2     ecut=    40.00 Ry     beta= 0.70
     Davidson diagonalization with overlap
     ethr =  1.69E-07,  avg # of iterations =  4.8

     negative rho (up, down):  7.903E-04 0.000E+00

     total cpu time spent up to now is      841.5 secs

     total energy              =    -471.89906404 Ry
     estimated scf accuracy    <       0.00041248 Ry

     iteration #  3     ecut=    40.00 Ry     beta= 0.70
     Davidson diagonalization with overlap
     ethr =  1.69E-07,  avg # of iterations =  3.3

     negative rho (up, down):  7.783E-04 0.000E+00

     total cpu time spent up to now is      845.0 secs

     total energy              =    -471.89910851 Ry
     estimated scf accuracy    <       0.00049209 Ry

     iteration #  4     ecut=    40.00 Ry     beta= 0.70
     Davidson diagonalization with overlap
     ethr =  1.69E-07,  avg # of iterations =  2.6

     negative rho (up, down):  7.824E-04 0.000E+00

     total cpu time spent up to now is      845.9 secs

     total energy              =    -471.89912674 Ry
     estimated scf accuracy    <       0.00010977 Ry

     iteration #  5     ecut=    40.00 Ry     beta= 0.70
     Davidson diagonalization with overlap
     ethr =  1.69E-07,  avg # of iterations =  2.5

     negative rho (up, down):  7.795E-04 0.000E+00

     total cpu time spent up to now is      846.8 secs

     total energy              =    -471.89913587 Ry
     estimated scf accuracy    <       0.00005560 Ry

     iteration #  6     ecut=    40.00 Ry     beta= 0.70
     Davidson diagonalization with overlap
     ethr =  1.32E-07,  avg # of iterations =  1.2

     negative rho (up, down):  7.774E-04 0.000E+00

     total cpu time spent up to now is      847.6 secs

     total energy              =    -471.89913999 Ry
     estimated scf accuracy    <       0.00001192 Ry

     iteration #  7     ecut=    40.00 Ry     beta= 0.70
     Davidson diagonalization with overlap
     ethr =  2.84E-08,  avg # of iterations =  2.2

     negative rho (up, down):  7.758E-04 0.000E+00

     total cpu time spent up to now is      848.5 secs

     total energy              =    -471.89914237 Ry
     estimated scf accuracy    <       0.00000044 Ry

     iteration #  8     ecut=    40.00 Ry     beta= 0.70
     Davidson diagonalization with overlap
     ethr =  1.05E-09,  avg # of iterations =  6.8

     negative rho (up, down):  7.756E-04 0.000E+00

     total cpu time spent up to now is      849.6 secs

     total energy              =    -471.89914257 Ry
     estimated scf accuracy    <       0.00000006 Ry

     iteration #  9     ecut=    40.00 Ry     beta= 0.70
     Davidson diagonalization with overlap
     ethr =  1.37E-10,  avg # of iterations =  5.2

     negative rho (up, down):  7.756E-04 0.000E+00

     total cpu time spent up to now is      850.7 secs

     total energy              =    -471.89914258 Ry
     estimated scf accuracy    <       0.00000002 Ry

     iteration # 10     ecut=    40.00 Ry     beta= 0.70
     Davidson diagonalization with overlap
     ethr =  3.58E-11,  avg # of iterations =  4.7

     negative rho (up, down):  7.758E-04 0.000E+00

     total cpu time spent up to now is      851.7 secs

     total energy              =    -471.89914259 Ry
     estimated scf accuracy    <          3.9E-09 Ry

     iteration # 11     ecut=    40.00 Ry     beta= 0.70
     Davidson diagonalization with overlap
     ethr =  9.17E-12,  avg # of iterations =  2.9

     negative rho (up, down):  7.758E-04 0.000E+00

     total cpu time spent up to now is      852.6 secs

     total energy              =    -471.89914259 Ry
     estimated scf accuracy    <          3.2E-10 Ry

     iteration # 12     ecut=    40.00 Ry     beta= 0.70
     Davidson diagonalization with overlap
     ethr =  7.50E-13,  avg # of iterations =  6.3

     negative rho (up, down):  7.758E-04 0.000E+00

     total cpu time spent up to now is      853.8 secs

     End of self-consistent calculation

          k = 0.0000 0.0000 0.0000 (  5509 PWs)   bands (ev):

   -55.4314 -55.3626 -31.9352 -31.5662 -31.5067 -31.5033 -31.4585 -31.4568
   -19.6964 -19.6448  -9.9943  -7.8336  -6.8348  -3.0620  -3.0575  -2.7410
    -2.7349  -2.1024  -0.0652  -0.0606   1.9587   2.2125   2.2145   2.2997
     2.4155

          k = 0.0000 0.2887 0.0000 (  5504 PWs)   bands (ev):

   -55.3964 -55.3451 -31.8722 -31.7558 -31.6392 -31.5668 -31.5268 -31.4832
   -19.5095 -19.4637  -9.2403  -7.4759  -7.1651  -3.9938  -3.5965  -3.0201
    -2.8804  -1.8485  -1.4964  -0.5280   1.1260   2.8579   3.1244   3.1560
     3.5685

          k = 0.0000-0.5773 0.0000 (  5552 PWs)   bands (ev):

   -55.3556 -55.3332 -31.9763 -31.9031 -31.6672 -31.6238 -31.5603 -31.5151
   -19.3296 -19.2829  -8.4514  -7.2590  -7.0845  -5.0204  -4.5861  -3.1756
    -3.0230  -2.5596  -1.2403  -0.5627   0.2767   3.7216   4.1460   4.5238
     4.5588

          k = 0.2500 0.1443 0.0000 (  5504 PWs)   bands (ev):

   -55.3965 -55.3451 -31.8721 -31.7547 -31.6381 -31.5681 -31.5266 -31.4843
   -19.5092 -19.4638  -9.2393  -7.4769  -7.1685  -3.9963  -3.5946  -3.0294
    -2.8747  -1.8475  -1.4885  -0.5256   1.1323   2.8518   3.1259   3.1525
     3.5690

          k = 0.2500 0.4330 0.0000 (  5528 PWs)   bands (ev):

   -55.3557 -55.3330 -31.8881 -31.8538 -31.7362 -31.6213 -31.6154 -31.5375
   -19.3274 -19.2818  -8.3999  -7.2442  -7.1953  -4.4346  -4.3820  -3.4807
    -3.4187  -2.3388  -1.7007  -1.2559   2.2893   2.4370   3.7833   4.1586
     4.2810

          k = 0.2500-0.4330 0.0000 (  5528 PWs)   bands (ev):

   -55.3559 -55.3329 -31.8872 -31.8531 -31.7371 -31.6224 -31.6164 -31.5362
   -19.3279 -19.2813  -8.4006  -7.2407  -7.1995  -4.4311  -4.3847  -3.4734
    -3.4252  -2.3341  -1.7003  -1.2561   2.2913   2.4375   3.7795   4.1558
     4.2798

          k = 0.2500-0.1443 0.0000 (  5504 PWs)   bands (ev):

   -55.3965 -55.3450 -31.8720 -31.7538 -31.6378 -31.5694 -31.5263 -31.4849
   -19.5094 -19.4635  -9.2396  -7.4759  -7.1704  -3.9959  -3.5951  -3.0210
    -2.8807  -1.8449  -1.4894  -0.5226   1.1321   2.8504   3.1256   3.1528
     3.5664

          k =-0.5000-0.2887 0.0000 (  5552 PWs)   bands (ev):

   -55.3557 -55.3331 -31.9756 -31.9010 -31.6686 -31.6250 -31.5592 -31.5163
   -19.3285 -19.2833  -8.4501  -7.2601  -7.0910  -5.0286  -4.5818  -3.1855
    -3.0182  -2.5505  -1.2319  -0.5597   0.2842   3.7181   4.1467   4.5236
     4.5577

          k =-0.5000-0.0000 0.0000 (  5528 PWs)   bands (ev):

   -55.3560 -55.3328 -31.8861 -31.8522 -31.7371 -31.6243 -31.6174 -31.5353
   -19.3273 -19.2815  -8.4010  -7.2442  -7.1995  -4.4327  -4.3828  -3.4786
    -3.4221  -2.3294  -1.7004  -1.2541   2.2945   2.4396   3.7808   4.1580
     4.2816

          k =-0.5000-0.8660 0.0000 (  5552 PWs)   bands (ev):

   -55.3560 -55.3328 -31.9750 -31.8998 -31.6706 -31.6262 -31.5575 -31.5170
   -19.3293 -19.2823  -8.4508  -7.2590  -7.0948  -5.0248  -4.5841  -3.1782
    -3.0234  -2.5448  -1.2295  -0.5555   0.2815   3.7099   4.1488   4.5215
     4.5567

     the Fermi energy is     2.3221 ev

!    total energy              =    -471.89914259 Ry
     total all-electron energy =     -3795.202832 Ry
     estimated scf accuracy    <          9.1E-11 Ry
     smearing contrib. (-TS)   =      -0.00529593 Ry
     internal energy E=F+TS    =    -471.89384666 Ry

     The total energy is F=E-TS. E is the sum of the following terms:
     one-electron contribution =   -3272.77241968 Ry
     hartree contribution      =    1642.44872926 Ry
     xc contribution           =     -58.26733107 Ry
     ewald contribution        =    1372.68348221 Ry
     one-center paw contrib.   =    -155.98630738 Ry

     convergence has been achieved in  12 iterations

     negative rho (up, down):  7.758E-04 0.000E+00

     Forces acting on atoms (cartesian axes, Ry/au):

     atom    1 type  1   force =    -0.00038806   -0.00062398    0.00014674
     atom    2 type  1   force =    -0.00137490    0.00018370    0.00414052
     atom    3 type  2   force =    -0.00173390   -0.00167784    0.00027296
     atom    4 type  3   force =     0.00007751    0.00129638   -0.00359474
     atom    5 type  3   force =     0.00024941    0.00105572   -0.00042447
     atom    6 type  4   force =     0.00163779    0.00010491   -0.00272549
     atom    7 type  4   force =     0.00153215   -0.00033889    0.00218449

     Total force =     0.007671     Total SCF correction =     0.000037
     Energy error            =      9.4E-05 Ry
     Gradient error          =      4.1E-03 Ry/Bohr

     number of scf cycles    =  45
     number of bfgs steps    =  44

     energy             old  =    -471.8990486177 Ry
     energy             new  =    -471.8991425883 Ry

     CASE: energy            _new < energy            _old

     new trust radius        =       0.0347843323 bohr
     new conv_thr            =            1.0E-10 Ry


ATOMIC_POSITIONS (angstrom)
Ti              -0.2963731359        1.7611328522        3.1245366909
Ti               1.2278743255        0.8811522417        5.4354262320
C                2.7525357097        0.0030227058        4.2801735764
O               -0.3043522584        1.7609433469        6.7068124090
O                1.2137131989        0.8766688606        1.8585406514
H                1.1650929291        0.8784097143        0.8866270395
H               -0.3391407690        1.7847302785        7.6813634008



     Writing config-only to output data dir ./tmp/ti2coh2.save/ :
     XML data file
     NEW-OLD atomic charge density approx. for the potential

     Check: negative core charge=   -0.000005

     negative rho (up, down):  7.746E-04 0.000E+00

     total cpu time spent up to now is      854.5 secs

     Self-consistent Calculation

     iteration #  1     ecut=    40.00 Ry     beta= 0.70
     Davidson diagonalization with overlap
     ethr =  1.00E-06,  avg # of iterations =  5.9

     negative rho (up, down):  7.684E-04 0.000E+00

     total cpu time spent up to now is      855.9 secs

     total energy              =    -471.89916956 Ry
     estimated scf accuracy    <       0.00008686 Ry

     iteration #  2     ecut=    40.00 Ry     beta= 0.70
     Davidson diagonalization with overlap
     ethr =  2.07E-07,  avg # of iterations =  4.3

     negative rho (up, down):  7.904E-04 0.000E+00

     total cpu time spent up to now is      857.0 secs

     total energy              =    -471.89906010 Ry
     estimated scf accuracy    <       0.00160826 Ry

     iteration #  3     ecut=    40.00 Ry     beta= 0.70
     Davidson diagonalization with overlap
     ethr =  2.07E-07,  avg # of iterations =  3.8

     negative rho (up, down):  7.870E-04 0.000E+00

     total cpu time spent up to now is      857.9 secs

     total energy              =    -471.89917410 Ry
     estimated scf accuracy    <       0.00030269 Ry

     iteration #  4     ecut=    40.00 Ry     beta= 0.70
     Davidson diagonalization with overlap
     ethr =  2.07E-07,  avg # of iterations =  6.1

     negative rho (up, down):  7.841E-04 0.000E+00

     total cpu time spent up to now is      858.9 secs

     total energy              =    -471.89914636 Ry
     estimated scf accuracy    <       0.00136816 Ry

     iteration #  5     ecut=    40.00 Ry     beta= 0.70
     Davidson diagonalization with overlap
     ethr =  2.07E-07,  avg # of iterations =  4.9

     negative rho (up, down):  7.831E-04 0.000E+00

     total cpu time spent up to now is      859.8 secs

     total energy              =    -471.89920478 Ry
     estimated scf accuracy    <       0.00008017 Ry

     iteration #  6     ecut=    40.00 Ry     beta= 0.70
     Davidson diagonalization with overlap
     ethr =  1.91E-07,  avg # of iterations =  1.4

     negative rho (up, down):  7.773E-04 0.000E+00

     total cpu time spent up to now is      860.6 secs

     total energy              =    -471.89921670 Ry
     estimated scf accuracy    <       0.00000570 Ry

     iteration #  7     ecut=    40.00 Ry     beta= 0.70
     Davidson diagonalization with overlap
     ethr =  1.36E-08,  avg # of iterations =  6.7

     negative rho (up, down):  7.754E-04 0.000E+00

     total cpu time spent up to now is      861.6 secs

     total energy              =    -471.89921951 Ry
     estimated scf accuracy    <       0.00000381 Ry

     iteration #  8     ecut=    40.00 Ry     beta= 0.70
     Davidson diagonalization with overlap
     ethr =  9.07E-09,  avg # of iterations =  1.8

     negative rho (up, down):  7.753E-04 0.000E+00

     total cpu time spent up to now is      862.5 secs

     total energy              =    -471.89921965 Ry
     estimated scf accuracy    <       0.00000086 Ry

     iteration #  9     ecut=    40.00 Ry     beta= 0.70
     Davidson diagonalization with overlap
     ethr =  2.05E-09,  avg # of iterations =  3.4

     negative rho (up, down):  7.751E-04 0.000E+00

     total cpu time spent up to now is      863.3 secs

     total energy              =    -471.89921977 Ry
     estimated scf accuracy    <       0.00000002 Ry

     iteration # 10     ecut=    40.00 Ry     beta= 0.70
     Davidson diagonalization with overlap
     ethr =  5.83E-11,  avg # of iterations =  9.8

     negative rho (up, down):  7.752E-04 0.000E+00

     total cpu time spent up to now is      864.7 secs

     total energy              =    -471.89921979 Ry
     estimated scf accuracy    <       0.00000019 Ry

     iteration # 11     ecut=    40.00 Ry     beta= 0.70
     Davidson diagonalization with overlap
     ethr =  5.83E-11,  avg # of iterations =  3.0

     negative rho (up, down):  7.752E-04 0.000E+00

     total cpu time spent up to now is      865.5 secs

     total energy              =    -471.89921980 Ry
     estimated scf accuracy    <       0.00000003 Ry

     iteration # 12     ecut=    40.00 Ry     beta= 0.70
     Davidson diagonalization with overlap
     ethr =  5.83E-11,  avg # of iterations =  2.0

     negative rho (up, down):  7.752E-04 0.000E+00

     total cpu time spent up to now is      866.4 secs

     total energy              =    -471.89921980 Ry
     estimated scf accuracy    <          5.7E-09 Ry

     iteration # 13     ecut=    40.00 Ry     beta= 0.70
     Davidson diagonalization with overlap
     ethr =  1.36E-11,  avg # of iterations =  7.4

     negative rho (up, down):  7.752E-04 0.000E+00

     total cpu time spent up to now is      867.4 secs

     total energy              =    -471.89921980 Ry
     estimated scf accuracy    <       0.00000001 Ry

     iteration # 14     ecut=    40.00 Ry     beta= 0.70
     Davidson diagonalization with overlap
     ethr =  1.36E-11,  avg # of iterations =  1.5

     negative rho (up, down):  7.752E-04 0.000E+00

     total cpu time spent up to now is      868.2 secs

     total energy              =    -471.89921980 Ry
     estimated scf accuracy    <          5.6E-09 Ry

     iteration # 15     ecut=    40.00 Ry     beta= 0.70
     Davidson diagonalization with overlap
     ethr =  1.33E-11,  avg # of iterations =  1.0

     negative rho (up, down):  7.752E-04 0.000E+00

     total cpu time spent up to now is      869.1 secs

     total energy              =    -471.89921980 Ry
     estimated scf accuracy    <          1.1E-09 Ry

     iteration # 16     ecut=    40.00 Ry     beta= 0.70
     Davidson diagonalization with overlap
     ethr =  2.67E-12,  avg # of iterations =  2.9

     negative rho (up, down):  7.752E-04 0.000E+00

     total cpu time spent up to now is      870.0 secs

     End of self-consistent calculation

          k = 0.0000 0.0000 0.0000 (  5509 PWs)   bands (ev):

   -55.4350 -55.3668 -31.9375 -31.5704 -31.5094 -31.5077 -31.4627 -31.4608
   -19.6942 -19.6455  -9.9947  -7.8350  -6.8384  -3.0626  -3.0539  -2.7432
    -2.7375  -2.1058  -0.0590  -0.0583   1.9518   2.2115   2.2166   2.2975
     2.4125

          k = 0.0000 0.2887 0.0000 (  5504 PWs)   bands (ev):

   -55.4002 -55.3492 -31.8744 -31.7585 -31.6431 -31.5709 -31.5310 -31.4877
   -19.5072 -19.4646  -9.2405  -7.4767  -7.1682  -3.9948  -3.5999  -3.0171
    -2.8831  -1.8462  -1.4984  -0.5230   1.1251   2.8533   3.1217   3.1550
     3.5625

          k = 0.0000-0.5773 0.0000 (  5552 PWs)   bands (ev):

   -55.3596 -55.3370 -31.9788 -31.9056 -31.6721 -31.6276 -31.5634 -31.5197
   -19.3270 -19.2839  -8.4505  -7.2591  -7.0876  -5.0212  -4.5895  -3.1741
    -3.0250  -2.5594  -1.2416  -0.5577   0.2749   3.7094   4.1458   4.5191
     4.5550

          k = 0.2500 0.1443 0.0000 (  5504 PWs)   bands (ev):

   -55.4002 -55.3492 -31.8745 -31.7571 -31.6416 -31.5723 -31.5306 -31.4892
   -19.5069 -19.4646  -9.2396  -7.4776  -7.1706  -3.9975  -3.5969  -3.0291
    -2.8846  -1.8466  -1.4847  -0.5194   1.1347   2.8460   3.1214   3.1506
     3.5649

          k = 0.2500 0.4330 0.0000 (  5528 PWs)   bands (ev):

   -55.3597 -55.3369 -31.8897 -31.8560 -31.7396 -31.6268 -31.6210 -31.5404
   -19.3249 -19.2828  -8.3999  -7.2414  -7.1997  -4.4284  -4.3934  -3.4744
    -3.4294  -2.3372  -1.7000  -1.2560   2.2923   2.4390   3.7748   4.1557
     4.2760

          k = 0.2500-0.4330 0.0000 (  5528 PWs)   bands (ev):

   -55.3597 -55.3369 -31.8907 -31.8567 -31.7403 -31.6254 -31.6195 -31.5412
   -19.3256 -19.2823  -8.3996  -7.2388  -7.2024  -4.4234  -4.3954  -3.4679
    -3.4328  -2.3360  -1.7004  -1.2603   2.2909   2.4342   3.7737   4.1531
     4.2709

          k = 0.2500-0.1443 0.0000 (  5504 PWs)   bands (ev):

   -55.4002 -55.3492 -31.8744 -31.7581 -31.6427 -31.5714 -31.5309 -31.4881
   -19.5072 -19.4644  -9.2399  -7.4768  -7.1710  -3.9964  -3.5989  -3.0159
    -2.8849  -1.8461  -1.4941  -0.5225   1.1284   2.8494   3.1233   3.1525
     3.5632

          k =-0.5000-0.2887 0.0000 (  5552 PWs)   bands (ev):

   -55.3596 -55.3370 -31.9781 -31.9027 -31.6733 -31.6291 -31.5624 -31.5212
   -19.3261 -19.2841  -8.4494  -7.2589  -7.0928  -5.0324  -4.5859  -3.1865
    -3.0271  -2.5501  -1.2287  -0.5547   0.2870   3.7080   4.1458   4.5209
     4.5537

          k =-0.5000-0.0000 0.0000 (  5528 PWs)   bands (ev):

   -55.3597 -55.3369 -31.8892 -31.8558 -31.7396 -31.6275 -31.6213 -31.5402
   -19.3250 -19.2824  -8.3999  -7.2412  -7.2026  -4.4254  -4.3952  -3.4721
    -3.4330  -2.3343  -1.7002  -1.2554   2.2944   2.4389   3.7767   4.1573
     4.2764

          k =-0.5000-0.8660 0.0000 (  5552 PWs)   bands (ev):

   -55.3596 -55.3370 -31.9785 -31.9049 -31.6724 -31.6281 -31.5632 -31.5202
   -19.3272 -19.2833  -8.4497  -7.2590  -7.0930  -5.0245  -4.5875  -3.1741
    -3.0266  -2.5547  -1.2378  -0.5570   0.2792   3.7092   4.1458   4.5193
     4.5540

     the Fermi energy is     2.3220 ev

!    total energy              =    -471.89921980 Ry
     total all-electron energy =     -3795.202909 Ry
     estimated scf accuracy    <          5.4E-11 Ry
     smearing contrib. (-TS)   =      -0.00531071 Ry
     internal energy E=F+TS    =    -471.89390909 Ry

     The total energy is F=E-TS. E is the sum of the following terms:
     one-electron contribution =   -3271.39580674 Ry
     hartree contribution      =    1641.75564772 Ry
     xc contribution           =     -58.26440504 Ry
     ewald contribution        =    1371.99690073 Ry
     one-center paw contrib.   =    -155.98624576 Ry

     convergence has been achieved in  16 iterations

     negative rho (up, down):  7.752E-04 0.000E+00

     Forces acting on atoms (cartesian axes, Ry/au):

     atom    1 type  1   force =    -0.00154579    0.00023527    0.00022297
     atom    2 type  1   force =    -0.00118131    0.00015118    0.00245634
     atom    3 type  2   force =    -0.00192791   -0.00103576   -0.00001263
     atom    4 type  3   force =     0.00068291    0.00065424    0.00008814
     atom    5 type  3   force =     0.00144932    0.00068887    0.00184111
     atom    6 type  4   force =     0.00137418   -0.00005346   -0.00388058
     atom    7 type  4   force =     0.00114861   -0.00064033   -0.00071535

     Total force =     0.006387     Total SCF correction =     0.000018
     Energy error            =      7.7E-05 Ry
     Gradient error          =      3.9E-03 Ry/Bohr

     number of scf cycles    =  46
     number of bfgs steps    =  45

     energy             old  =    -471.8991425883 Ry
     energy             new  =    -471.8992197990 Ry

     CASE: energy            _new < energy            _old

     new trust radius        =       0.0159376049 bohr
     new conv_thr            =            1.0E-10 Ry


ATOMIC_POSITIONS (angstrom)
Ti              -0.2976572552        1.7587192140        3.1247302694
Ti               1.2238742366        0.8803494062        5.4392859128
C                2.7498673033        0.0000417242        4.2819946443
O               -0.3057233445        1.7648416949        6.7078628893
O                1.2097760971        0.8785198524        1.8557768909
H                1.1718829081        0.8819431209        0.8830857830
H               -0.3326699454        1.7816449873        7.6807436103



     Writing config-only to output data dir ./tmp/ti2coh2.save/ :
     XML data file
     NEW-OLD atomic charge density approx. for the potential

     Check: negative core charge=   -0.000005

     negative rho (up, down):  7.744E-04 0.000E+00

     total cpu time spent up to now is      870.7 secs

     Self-consistent Calculation

     iteration #  1     ecut=    40.00 Ry     beta= 0.70
     Davidson diagonalization with overlap
     ethr =  1.00E-06,  avg # of iterations =  5.4

     negative rho (up, down):  7.665E-04 0.000E+00

     total cpu time spent up to now is      872.2 secs

     total energy              =    -471.89922106 Ry
     estimated scf accuracy    <       0.00007435 Ry

     iteration #  2     ecut=    40.00 Ry     beta= 0.70
     Davidson diagonalization with overlap
     ethr =  1.77E-07,  avg # of iterations =  5.0

     negative rho (up, down):  7.910E-04 0.000E+00

     total cpu time spent up to now is      873.4 secs

     total energy              =    -471.89908903 Ry
     estimated scf accuracy    <       0.00228643 Ry

     iteration #  3     ecut=    40.00 Ry     beta= 0.70
     Davidson diagonalization with overlap
     ethr =  1.77E-07,  avg # of iterations =  4.5

     negative rho (up, down):  7.863E-04 0.000E+00

     total cpu time spent up to now is      874.4 secs

     total energy              =    -471.89924356 Ry
     estimated scf accuracy    <       0.00014009 Ry

     iteration #  4     ecut=    40.00 Ry     beta= 0.70
     Davidson diagonalization with overlap
     ethr =  1.77E-07,  avg # of iterations =  5.3

     negative rho (up, down):  7.851E-04 0.000E+00

     total cpu time spent up to now is      875.4 secs

     total energy              =    -471.89923611 Ry
     estimated scf accuracy    <       0.00052496 Ry

     iteration #  5     ecut=    40.00 Ry     beta= 0.70
     Davidson diagonalization with overlap
     ethr =  1.77E-07,  avg # of iterations =  4.3

     negative rho (up, down):  7.820E-04 0.000E+00

     total cpu time spent up to now is      876.4 secs

     total energy              =    -471.89925881 Ry
     estimated scf accuracy    <       0.00014733 Ry

     iteration #  6     ecut=    40.00 Ry     beta= 0.70
     Davidson diagonalization with overlap
     ethr =  1.77E-07,  avg # of iterations =  1.2

     negative rho (up, down):  7.765E-04 0.000E+00

     total cpu time spent up to now is      879.6 secs

     total energy              =    -471.89927233 Ry
     estimated scf accuracy    <       0.00000247 Ry

     iteration #  7     ecut=    40.00 Ry     beta= 0.70
     Davidson diagonalization with overlap
     ethr =  5.88E-09,  avg # of iterations =  6.2

     negative rho (up, down):  7.740E-04 0.000E+00

     total cpu time spent up to now is      880.8 secs

     total energy              =    -471.89927454 Ry
     estimated scf accuracy    <       0.00000073 Ry

     iteration #  8     ecut=    40.00 Ry     beta= 0.70
     Davidson diagonalization with overlap
     ethr =  1.75E-09,  avg # of iterations =  3.3

     negative rho (up, down):  7.737E-04 0.000E+00

     total cpu time spent up to now is      881.8 secs

     total energy              =    -471.89927466 Ry
     estimated scf accuracy    <       0.00000020 Ry

     iteration #  9     ecut=    40.00 Ry     beta= 0.70
     Davidson diagonalization with overlap
     ethr =  4.87E-10,  avg # of iterations =  5.1

     negative rho (up, down):  7.735E-04 0.000E+00

     total cpu time spent up to now is      882.9 secs

     total energy              =    -471.89927471 Ry
     estimated scf accuracy    <       0.00000003 Ry

     iteration # 10     ecut=    40.00 Ry     beta= 0.70
     Davidson diagonalization with overlap
     ethr =  6.39E-11,  avg # of iterations =  5.4

     negative rho (up, down):  7.734E-04 0.000E+00

     total cpu time spent up to now is      884.0 secs

     total energy              =    -471.89927472 Ry
     estimated scf accuracy    <       0.00000001 Ry

     iteration # 11     ecut=    40.00 Ry     beta= 0.70
     Davidson diagonalization with overlap
     ethr =  2.64E-11,  avg # of iterations =  2.9

     negative rho (up, down):  7.733E-04 0.000E+00

     total cpu time spent up to now is      884.9 secs

     total energy              =    -471.89927472 Ry
     estimated scf accuracy    <          3.6E-09 Ry

     iteration # 12     ecut=    40.00 Ry     beta= 0.70
     Davidson diagonalization with overlap
     ethr =  8.55E-12,  avg # of iterations =  4.7

     negative rho (up, down):  7.733E-04 0.000E+00

     total cpu time spent up to now is      885.9 secs

     total energy              =    -471.89927472 Ry
     estimated scf accuracy    <          6.0E-10 Ry

     iteration # 13     ecut=    40.00 Ry     beta= 0.70
     Davidson diagonalization with overlap
     ethr =  1.42E-12,  avg # of iterations =  6.2

     negative rho (up, down):  7.733E-04 0.000E+00

     total cpu time spent up to now is      886.9 secs

     total energy              =    -471.89927472 Ry
     estimated scf accuracy    <          9.0E-10 Ry

     iteration # 14     ecut=    40.00 Ry     beta= 0.70
     Davidson diagonalization with overlap
     ethr =  1.42E-12,  avg # of iterations =  2.0

     negative rho (up, down):  7.733E-04 0.000E+00

     total cpu time spent up to now is      887.7 secs

     total energy              =    -471.89927472 Ry
     estimated scf accuracy    <          1.3E-10 Ry

     iteration # 15     ecut=    40.00 Ry     beta= 0.70
     Davidson diagonalization with overlap
     ethr =  3.09E-13,  avg # of iterations =  4.9

     negative rho (up, down):  7.733E-04 0.000E+00

     total cpu time spent up to now is      888.7 secs

     End of self-consistent calculation

          k = 0.0000 0.0000 0.0000 (  5509 PWs)   bands (ev):

   -55.4387 -55.3713 -31.9393 -31.5750 -31.5137 -31.5107 -31.4673 -31.4649
   -19.6909 -19.6653  -9.9955  -7.8411  -6.8466  -3.0626  -3.0527  -2.7501
    -2.7388  -2.1063  -0.0535  -0.0517   1.9463   2.2123   2.2199   2.2970
     2.4088

          k = 0.0000 0.2887 0.0000 (  5504 PWs)   bands (ev):

   -55.4040 -55.3536 -31.8763 -31.7613 -31.6473 -31.5748 -31.5356 -31.4924
   -19.4980 -19.4906  -9.2400  -7.4822  -7.1766  -3.9981  -3.6046  -3.0169
    -2.8886  -1.8428  -1.4975  -0.5161   1.1265   2.8496   3.1220   3.1548
     3.5567

          k = 0.0000-0.5773 0.0000 (  5552 PWs)   bands (ev):

   -55.3636 -55.3412 -31.9811 -31.9080 -31.6767 -31.6313 -31.5672 -31.5246
   -19.3164 -19.3117  -8.4481  -7.2633  -7.0970  -5.0256  -4.5943  -3.1752
    -3.0302  -2.5589  -1.2420  -0.5517   0.2766   3.6972   4.1458   4.5148
     4.5509

          k = 0.2500 0.1443 0.0000 (  5504 PWs)   bands (ev):

   -55.4040 -55.3536 -31.8763 -31.7598 -31.6457 -31.5763 -31.5352 -31.4940
   -19.4979 -19.4905  -9.2401  -7.4836  -7.1763  -3.9992  -3.6024  -3.0275
    -2.8965  -1.8432  -1.4844  -0.5107   1.1354   2.8446   3.1216   3.1498
     3.5594

          k = 0.2500 0.4330 0.0000 (  5528 PWs)   bands (ev):

   -55.3637 -55.3411 -31.8914 -31.8584 -31.7427 -31.6322 -31.6265 -31.5439
   -19.3137 -19.3111  -8.3982  -7.2371  -7.2173  -4.4174  -4.4121  -3.4661
    -3.4453  -2.3376  -1.6978  -1.2564   2.2968   2.4409   3.7661   4.1543
     4.2685

          k = 0.2500-0.4330 0.0000 (  5528 PWs)   bands (ev):

   -55.3636 -55.3412 -31.8937 -31.8601 -31.7431 -31.6292 -31.6232 -31.5462
   -19.3134 -19.3118  -8.3968  -7.2374  -7.2169  -4.4151  -4.4106  -3.4677
    -3.4401  -2.3356  -1.6991  -1.2638   2.2942   2.4319   3.7693   4.1521
     4.2608

          k = 0.2500-0.1443 0.0000 (  5504 PWs)   bands (ev):

   -55.4039 -55.3536 -31.8763 -31.7620 -31.6476 -31.5739 -31.5358 -31.4919
   -19.4979 -19.4907  -9.2395  -7.4825  -7.1779  -3.9993  -3.6041  -3.0171
    -2.8857  -1.8449  -1.4966  -0.5192   1.1270   2.8489   3.1236   3.1537
     3.5588

          k =-0.5000-0.2887 0.0000 (  5552 PWs)   bands (ev):

   -55.3637 -55.3412 -31.9805 -31.9047 -31.6780 -31.6328 -31.5661 -31.5261
   -19.3161 -19.3112  -8.4486  -7.2642  -7.0995  -5.0314  -4.5921  -3.1865
    -3.0384  -2.5541  -1.2289  -0.5473   0.2875   3.6952   4.1457   4.5176
     4.5496

          k =-0.5000-0.0000 0.0000 (  5528 PWs)   bands (ev):

   -55.3636 -55.3412 -31.8920 -31.8591 -31.7422 -31.6311 -31.6255 -31.5450
   -19.3133 -19.3114  -8.3975  -7.2380  -7.2181  -4.4168  -4.4111  -3.4676
    -3.4443  -2.3384  -1.6983  -1.2573   2.2966   2.4384   3.7705   4.1567
     4.2679

          k =-0.5000-0.8660 0.0000 (  5552 PWs)   bands (ev):

   -55.3634 -55.3414 -31.9815 -31.9093 -31.6748 -31.6306 -31.5686 -31.5240
   -19.3162 -19.3118  -8.4471  -7.2636  -7.0993  -5.0280  -4.5920  -3.1755
    -3.0275  -2.5610  -1.2442  -0.5554   0.2791   3.7041   4.1442   4.5163
     4.5507

     the Fermi energy is     2.3235 ev

!    total energy              =    -471.89927472 Ry
     total all-electron energy =     -3795.202964 Ry
     estimated scf accuracy    <          2.6E-11 Ry
     smearing contrib. (-TS)   =      -0.00534332 Ry
     internal energy E=F+TS    =    -471.89393140 Ry

     The total energy is F=E-TS. E is the sum of the following terms:
     one-electron contribution =   -3269.49312971 Ry
     hartree contribution      =    1640.79847918 Ry
     xc contribution           =     -58.26316305 Ry
     ewald contribution        =    1371.04999215 Ry
     one-center paw contrib.   =    -155.98610997 Ry

     convergence has been achieved in  15 iterations

     negative rho (up, down):  7.733E-04 0.000E+00

     Forces acting on atoms (cartesian axes, Ry/au):

     atom    1 type  1   force =    -0.00225552    0.00065278    0.00023014
     atom    2 type  1   force =    -0.00057693    0.00028187   -0.00020331
     atom    3 type  2   force =    -0.00169025    0.00004498   -0.00013703
     atom    4 type  3   force =     0.00063501   -0.00041146   -0.00256510
     atom    5 type  3   force =     0.00194686    0.00002181    0.00257935
     atom    6 type  4   force =     0.00110303   -0.00012686   -0.00305256
     atom    7 type  4   force =     0.00083779   -0.00046312    0.00314851

     Total force =     0.006919     Total SCF correction =     0.000019
     Energy error            =      5.5E-05 Ry
     Gradient error          =      3.1E-03 Ry/Bohr

     number of scf cycles    =  47
     number of bfgs steps    =  46

     energy             old  =    -471.8992197990 Ry
     energy             new  =    -471.8992747245 Ry

     CASE: energy            _new < energy            _old

     new trust radius        =       0.0117546883 bohr
     new conv_thr            =            1.0E-10 Ry


ATOMIC_POSITIONS (angstrom)
Ti              -0.3003769347        1.7586858148        3.1253323193
Ti               1.2215323318        0.8792876009        5.4411589842
C                2.7470176844       -0.0013678113        4.2832821155
O               -0.3074996289        1.7626560424        6.7069470477
O                1.2088490983        0.8816155148        1.8547567263
H                1.1773780330        0.8840309701        0.8810518745
H               -0.3275505839        1.7811518683        7.6809509325



     Writing config-only to output data dir ./tmp/ti2coh2.save/ :
     XML data file
     NEW-OLD atomic charge density approx. for the potential

     Check: negative core charge=   -0.000005

     negative rho (up, down):  7.729E-04 0.000E+00

     total cpu time spent up to now is      889.3 secs

     Self-consistent Calculation

     iteration #  1     ecut=    40.00 Ry     beta= 0.70
     Davidson diagonalization with overlap
     ethr =  1.00E-06,  avg # of iterations =  4.3

     Threshold (ethr) on eigenvalues was too large:
     Diagonalizing with lowered threshold

     Davidson diagonalization with overlap
     ethr =  5.95E-08,  avg # of iterations =  4.3

     negative rho (up, down):  7.697E-04 0.000E+00

     total cpu time spent up to now is      891.3 secs

     total energy              =    -471.89929534 Ry
     estimated scf accuracy    <       0.00002781 Ry

     iteration #  2     ecut=    40.00 Ry     beta= 0.70
     Davidson diagonalization with overlap
     ethr =  6.62E-08,  avg # of iterations =  4.5

     negative rho (up, down):  7.788E-04 0.000E+00

     total cpu time spent up to now is      892.4 secs

     total energy              =    -471.89926849 Ry
     estimated scf accuracy    <       0.00032276 Ry

     iteration #  3     ecut=    40.00 Ry     beta= 0.70
     Davidson diagonalization with overlap
     ethr =  6.62E-08,  avg # of iterations =  3.9

     negative rho (up, down):  7.771E-04 0.000E+00

     total cpu time spent up to now is      893.4 secs

     total energy              =    -471.89929316 Ry
     estimated scf accuracy    <       0.00014232 Ry

     iteration #  4     ecut=    40.00 Ry     beta= 0.70
     Davidson diagonalization with overlap
     ethr =  6.62E-08,  avg # of iterations =  3.0

     negative rho (up, down):  7.765E-04 0.000E+00

     total cpu time spent up to now is      894.3 secs

     total energy              =    -471.89930563 Ry
     estimated scf accuracy    <       0.00004393 Ry

     iteration #  5     ecut=    40.00 Ry     beta= 0.70
     Davidson diagonalization with overlap
     ethr =  6.62E-08,  avg # of iterations =  1.1

     negative rho (up, down):  7.751E-04 0.000E+00

     total cpu time spent up to now is      895.0 secs

     total energy              =    -471.89931058 Ry
     estimated scf accuracy    <       0.00000065 Ry

     iteration #  6     ecut=    40.00 Ry     beta= 0.70
     Davidson diagonalization with overlap
     ethr =  1.54E-09,  avg # of iterations =  7.2

     negative rho (up, down):  7.758E-04 0.000E+00

     total cpu time spent up to now is      896.2 secs

     total energy              =    -471.89931035 Ry
     estimated scf accuracy    <       0.00000331 Ry

     iteration #  7     ecut=    40.00 Ry     beta= 0.70
     Davidson diagonalization with overlap
     ethr =  1.54E-09,  avg # of iterations =  6.3

     negative rho (up, down):  7.744E-04 0.000E+00

     total cpu time spent up to now is      897.2 secs

     total energy              =    -471.89931111 Ry
     estimated scf accuracy    <       0.00000480 Ry

     iteration #  8     ecut=    40.00 Ry     beta= 0.70
     Davidson diagonalization with overlap
     ethr =  1.54E-09,  avg # of iterations =  2.6

     negative rho (up, down):  7.742E-04 0.000E+00

     total cpu time spent up to now is      898.0 secs

     total energy              =    -471.89931132 Ry
     estimated scf accuracy    <       0.00000005 Ry

     iteration #  9     ecut=    40.00 Ry     beta= 0.70
     Davidson diagonalization with overlap
     ethr =  1.12E-10,  avg # of iterations =  7.5

     negative rho (up, down):  7.742E-04 0.000E+00

     total cpu time spent up to now is      899.0 secs

     total energy              =    -471.89931134 Ry
     estimated scf accuracy    <       0.00000005 Ry

     iteration # 10     ecut=    40.00 Ry     beta= 0.70
     Davidson diagonalization with overlap
     ethr =  1.12E-10,  avg # of iterations =  1.7

     negative rho (up, down):  7.742E-04 0.000E+00

     total cpu time spent up to now is      899.8 secs

     total energy              =    -471.89931134 Ry
     estimated scf accuracy    <       0.00000001 Ry

     iteration # 11     ecut=    40.00 Ry     beta= 0.70
     Davidson diagonalization with overlap
     ethr =  2.94E-11,  avg # of iterations =  3.8

     negative rho (up, down):  7.742E-04 0.000E+00

     total cpu time spent up to now is      900.6 secs

     End of self-consistent calculation

          k = 0.0000 0.0000 0.0000 (  5509 PWs)   bands (ev):

   -55.4415 -55.3743 -31.9415 -31.5781 -31.5163 -31.5136 -31.4701 -31.4681
   -19.6927 -19.6603  -9.9963  -7.8422  -6.8484  -3.0651  -3.0584  -2.7534
    -2.7423  -2.1067  -0.0514  -0.0499   1.9411   2.2123   2.2184   2.2946
     2.4072

          k = 0.0000 0.2887 0.0000 (  5504 PWs)   bands (ev):

   -55.4067 -55.3566 -31.8785 -31.7638 -31.6502 -31.5775 -31.5387 -31.4955
   -19.5033 -19.4819  -9.2415  -7.4836  -7.1761  -4.0018  -3.6076  -3.0238
    -2.8937  -1.8435  -1.4965  -0.5141   1.1262   2.8468   3.1185   3.1521
     3.5543

          k = 0.0000-0.5773 0.0000 (  5552 PWs)   bands (ev):

   -55.3664 -55.3442 -31.9837 -31.9103 -31.6795 -31.6340 -31.5703 -31.5277
   -19.3228 -19.3016  -8.4491  -7.2651  -7.0962  -5.0269  -4.5976  -3.1819
    -3.0354  -2.5632  -1.2425  -0.5506   0.2772   3.6929   4.1436   4.5134
     4.5479

          k = 0.2500 0.1443 0.0000 (  5504 PWs)   bands (ev):

   -55.4068 -55.3566 -31.8785 -31.7626 -31.6490 -31.5789 -31.5384 -31.4969
   -19.5033 -19.4818  -9.2408  -7.4841  -7.1779  -4.0036  -3.6054  -3.0291
    -2.8993  -1.8435  -1.4858  -0.5106   1.1335   2.8411   3.1176   3.1493
     3.5557

          k = 0.2500 0.4330 0.0000 (  5528 PWs)   bands (ev):

   -55.3666 -55.3440 -31.8939 -31.8611 -31.7451 -31.6350 -31.6295 -31.5472
   -19.3212 -19.3001  -8.3988  -7.2401  -7.2148  -4.4281  -4.4081  -3.4718
    -3.4464  -2.3403  -1.6986  -1.2579   2.2969   2.4397   3.7628   4.1525
     4.2649

          k = 0.2500-0.4330 0.0000 (  5528 PWs)   bands (ev):

   -55.3664 -55.3441 -31.8959 -31.8626 -31.7454 -31.6325 -31.6265 -31.5492
   -19.3209 -19.3008  -8.3976  -7.2415  -7.2133  -4.4288  -4.4040  -3.4755
    -3.4393  -2.3387  -1.6998  -1.2645   2.2942   2.4320   3.7653   4.1507
     4.2578

          k = 0.2500-0.1443 0.0000 (  5504 PWs)   bands (ev):

   -55.4067 -55.3566 -31.8785 -31.7645 -31.6507 -31.5767 -31.5389 -31.4950
   -19.5032 -19.4821  -9.2404  -7.4833  -7.1789  -4.0035  -3.6070  -3.0238
    -2.8858  -1.8449  -1.4971  -0.5181   1.1258   2.8454   3.1196   3.1528
     3.5550

          k =-0.5000-0.2887 0.0000 (  5552 PWs)   bands (ev):

   -55.3665 -55.3441 -31.9830 -31.9077 -31.6808 -31.6354 -31.5692 -31.5291
   -19.3228 -19.3012  -8.4484  -7.2641  -7.1002  -5.0356  -4.5954  -3.1877
    -3.0411  -2.5551  -1.2319  -0.5475   0.2859   3.6901   4.1440   4.5145
     4.5468

          k =-0.5000-0.0000 0.0000 (  5528 PWs)   bands (ev):

   -55.3665 -55.3441 -31.8946 -31.8617 -31.7450 -31.6341 -31.6283 -31.5481
   -19.3209 -19.3005  -8.3980  -7.2418  -7.2145  -4.4296  -4.4051  -3.4766
    -3.4414  -2.3371  -1.6995  -1.2606   2.2971   2.4361   3.7667   4.1531
     4.2624

          k =-0.5000-0.8660 0.0000 (  5552 PWs)   bands (ev):

   -55.3663 -55.3443 -31.9840 -31.9118 -31.6780 -31.6333 -31.5714 -31.5272
   -19.3223 -19.3022  -8.4472  -7.2640  -7.0993  -5.0323  -4.5952  -3.1814
    -3.0280  -2.5617  -1.2458  -0.5545   0.2781   3.6977   4.1427   4.5134
     4.5478

     the Fermi energy is     2.3230 ev

!    total energy              =    -471.89931134 Ry
     total all-electron energy =     -3795.203000 Ry
     estimated scf accuracy    <          7.9E-11 Ry
     smearing contrib. (-TS)   =      -0.00535121 Ry
     internal energy E=F+TS    =    -471.89396013 Ry

     The total energy is F=E-TS. E is the sum of the following terms:
     one-electron contribution =   -3269.04413692 Ry
     hartree contribution      =    1640.56970443 Ry
     xc contribution           =     -58.26085643 Ry
     ewald contribution        =    1370.82743308 Ry
     one-center paw contrib.   =    -155.98610429 Ry

     convergence has been achieved in  11 iterations

     negative rho (up, down):  7.742E-04 0.000E+00

     Forces acting on atoms (cartesian axes, Ry/au):

     atom    1 type  1   force =    -0.00207937    0.00056609   -0.00004970
     atom    2 type  1   force =    -0.00065309    0.00011873   -0.00169371
     atom    3 type  2   force =    -0.00127037    0.00068655   -0.00039795
     atom    4 type  3   force =     0.00061986   -0.00019695    0.00013517
     atom    5 type  3   force =     0.00173378   -0.00049308    0.00191789
     atom    6 type  4   force =     0.00096478   -0.00013347   -0.00148270
     atom    7 type  4   force =     0.00068442   -0.00054787    0.00157101

     Total force =     0.004894     Total SCF correction =     0.000037
     Energy error            =      3.7E-05 Ry
     Gradient error          =      2.1E-03 Ry/Bohr

     number of scf cycles    =  48
     number of bfgs steps    =  47

     energy             old  =    -471.8992747245 Ry
     energy             new  =    -471.8993113408 Ry

     CASE: energy            _new < energy            _old

     new trust radius        =       0.0195401428 bohr
     new conv_thr            =            1.0E-10 Ry


ATOMIC_POSITIONS (angstrom)
Ti              -0.3051119331        1.7602783623        3.1260715852
Ti               1.2187704316        0.8787037111        5.4419657949
C                2.7429326815       -0.0016057210        4.2844274859
O               -0.3084693708        1.7597035342        6.7062965214
O                1.2092250835        0.8860947231        1.8547564134
H                1.1871992604        0.8868230888        0.8794186981
H               -0.3251961531        1.7760623017        7.6805435010



     Writing config-only to output data dir ./tmp/ti2coh2.save/ :
     XML data file
     NEW-OLD atomic charge density approx. for the potential

     Check: negative core charge=   -0.000005

     negative rho (up, down):  7.742E-04 0.000E+00

     total cpu time spent up to now is      901.3 secs

     Self-consistent Calculation

     iteration #  1     ecut=    40.00 Ry     beta= 0.70
     Davidson diagonalization with overlap
     ethr =  1.00E-06,  avg # of iterations =  4.2

     Threshold (ethr) on eigenvalues was too large:
     Diagonalizing with lowered threshold

     Davidson diagonalization with overlap
     ethr =  7.81E-08,  avg # of iterations =  5.0

     negative rho (up, down):  7.735E-04 0.000E+00

     total cpu time spent up to now is      903.5 secs

     total energy              =    -471.89932994 Ry
     estimated scf accuracy    <       0.00003474 Ry

     iteration #  2     ecut=    40.00 Ry     beta= 0.70
     Davidson diagonalization with overlap
     ethr =  8.27E-08,  avg # of iterations =  5.2

     negative rho (up, down):  7.802E-04 0.000E+00

     total cpu time spent up to now is      904.7 secs

     total energy              =    -471.89930302 Ry
     estimated scf accuracy    <       0.00023501 Ry

     iteration #  3     ecut=    40.00 Ry     beta= 0.70
     Davidson diagonalization with overlap
     ethr =  8.27E-08,  avg # of iterations =  7.5

     negative rho (up, down):  7.809E-04 0.000E+00

     total cpu time spent up to now is      905.8 secs

     total energy              =    -471.89930272 Ry
     estimated scf accuracy    <       0.00095032 Ry

     iteration #  4     ecut=    40.00 Ry     beta= 0.70
     Davidson diagonalization with overlap
     ethr =  8.27E-08,  avg # of iterations =  5.6

     negative rho (up, down):  7.801E-04 0.000E+00

     total cpu time spent up to now is      906.8 secs

     total energy              =    -471.89933749 Ry
     estimated scf accuracy    <       0.00008042 Ry

     iteration #  5     ecut=    40.00 Ry     beta= 0.70
     Davidson diagonalization with overlap
     ethr =  8.27E-08,  avg # of iterations =  2.1

     negative rho (up, down):  7.765E-04 0.000E+00

     total cpu time spent up to now is      907.6 secs

     total energy              =    -471.89934626 Ry
     estimated scf accuracy    <       0.00000422 Ry

     iteration #  6     ecut=    40.00 Ry     beta= 0.70
     Davidson diagonalization with overlap
     ethr =  1.00E-08,  avg # of iterations =  7.7

     negative rho (up, down):  7.759E-04 0.000E+00

     total cpu time spent up to now is      908.7 secs

     total energy              =    -471.89934724 Ry
     estimated scf accuracy    <       0.00004111 Ry

     iteration #  7     ecut=    40.00 Ry     beta= 0.70
     Davidson diagonalization with overlap
     ethr =  1.00E-08,  avg # of iterations =  2.2

     negative rho (up, down):  7.756E-04 0.000E+00

     total cpu time spent up to now is      909.6 secs

     total energy              =    -471.89934949 Ry
     estimated scf accuracy    <       0.00000367 Ry

     iteration #  8     ecut=    40.00 Ry     beta= 0.70
     Davidson diagonalization with overlap
     ethr =  8.73E-09,  avg # of iterations =  1.8

     negative rho (up, down):  7.758E-04 0.000E+00

     total cpu time spent up to now is      910.5 secs

     total energy              =    -471.89934958 Ry
     estimated scf accuracy    <       0.00000113 Ry

     iteration #  9     ecut=    40.00 Ry     beta= 0.70
     Davidson diagonalization with overlap
     ethr =  2.68E-09,  avg # of iterations =  3.6

     negative rho (up, down):  7.756E-04 0.000E+00

     total cpu time spent up to now is      911.5 secs

     total energy              =    -471.89934969 Ry
     estimated scf accuracy    <          7.2E-09 Ry

     iteration # 10     ecut=    40.00 Ry     beta= 0.70
     Davidson diagonalization with overlap
     ethr =  1.70E-11,  avg # of iterations = 12.6

     negative rho (up, down):  7.755E-04 0.000E+00

     total cpu time spent up to now is      915.6 secs

     total energy              =    -471.89934972 Ry
     estimated scf accuracy    <       0.00000015 Ry

     iteration # 11     ecut=    40.00 Ry     beta= 0.70
     Davidson diagonalization with overlap
     ethr =  1.70E-11,  avg # of iterations =  5.8

     negative rho (up, down):  7.754E-04 0.000E+00

     total cpu time spent up to now is      916.7 secs

     total energy              =    -471.89934972 Ry
     estimated scf accuracy    <       0.00000004 Ry

     iteration # 12     ecut=    40.00 Ry     beta= 0.70
     Davidson diagonalization with overlap
     ethr =  1.70E-11,  avg # of iterations =  4.5

     negative rho (up, down):  7.754E-04 0.000E+00

     total cpu time spent up to now is      917.6 secs

     total energy              =    -471.89934972 Ry
     estimated scf accuracy    <          2.0E-09 Ry

     iteration # 13     ecut=    40.00 Ry     beta= 0.70
     Davidson diagonalization with overlap
     ethr =  4.78E-12,  avg # of iterations =  6.2

     negative rho (up, down):  7.753E-04 0.000E+00

     total cpu time spent up to now is      918.7 secs

     total energy              =    -471.89934972 Ry
     estimated scf accuracy    <          4.7E-10 Ry

     iteration # 14     ecut=    40.00 Ry     beta= 0.70
     Davidson diagonalization with overlap
     ethr =  1.13E-12,  avg # of iterations =  2.3

     negative rho (up, down):  7.753E-04 0.000E+00

     total cpu time spent up to now is      919.6 secs

     total energy              =    -471.89934972 Ry
     estimated scf accuracy    <          2.8E-10 Ry

     iteration # 15     ecut=    40.00 Ry     beta= 0.70
     Davidson diagonalization with overlap
     ethr =  6.62E-13,  avg # of iterations =  1.8

     negative rho (up, down):  7.753E-04 0.000E+00

     total cpu time spent up to now is      920.4 secs

     End of self-consistent calculation

          k = 0.0000 0.0000 0.0000 (  5509 PWs)   bands (ev):

   -55.4425 -55.3754 -31.9426 -31.5792 -31.5167 -31.5153 -31.4707 -31.4697
   -19.6964 -19.6505  -9.9968  -7.8417  -6.8478  -3.0668  -3.0618  -2.7530
    -2.7440  -2.1072  -0.0510  -0.0503   1.9387   2.2119   2.2169   2.2930
     2.4068

          k = 0.0000 0.2887 0.0000 (  5504 PWs)   bands (ev):

   -55.4078 -55.3577 -31.8796 -31.7649 -31.6511 -31.5784 -31.5399 -31.4967
   -19.5091 -19.4698  -9.2427  -7.4836  -7.1735  -4.0035  -3.6078  -3.0302
    -2.8960  -1.8453  -1.4943  -0.5141   1.1266   2.8453   3.1164   3.1494
     3.5547

          k = 0.0000-0.5773 0.0000 (  5552 PWs)   bands (ev):

   -55.3674 -55.3454 -31.9848 -31.9111 -31.6801 -31.6350 -31.5717 -31.5289
   -19.3289 -19.2890  -8.4504  -7.2658  -7.0931  -5.0275  -4.5980  -3.1879
    -3.0382  -2.5667  -1.2415  -0.5514   0.2788   3.6941   4.1418   4.5143
     4.5467

          k = 0.2500 0.1443 0.0000 (  5504 PWs)   bands (ev):

   -55.4078 -55.3577 -31.8795 -31.7642 -31.6506 -31.5794 -31.5396 -31.4975
   -19.5091 -19.4697  -9.2415  -7.4831  -7.1771  -4.0055  -3.6063  -3.0295
    -2.8960  -1.8446  -1.4896  -0.5134   1.1303   2.8405   3.1155   3.1495
     3.5541

          k = 0.2500 0.4330 0.0000 (  5528 PWs)   bands (ev):

   -55.3676 -55.3452 -31.8954 -31.8627 -31.7459 -31.6355 -31.6300 -31.5490
   -19.3273 -19.2876  -8.3995  -7.2443  -7.2079  -4.4356  -4.4025  -3.4782
    -3.4421  -2.3438  -1.6997  -1.2591   2.2954   2.4379   3.7631   4.1525
     4.2638

          k = 0.2500-0.4330 0.0000 (  5528 PWs)   bands (ev):

   -55.3675 -55.3452 -31.8965 -31.8633 -31.7463 -31.6342 -31.6285 -31.5498
   -19.3271 -19.2880  -8.3990  -7.2456  -7.2066  -4.4365  -4.3998  -3.4812
    -3.4369  -2.3405  -1.7005  -1.2633   2.2942   2.4336   3.7636   4.1506
     4.2590

          k = 0.2500-0.1443 0.0000 (  5504 PWs)   bands (ev):

   -55.4078 -55.3576 -31.8795 -31.7652 -31.6515 -31.5784 -31.5398 -31.4966
   -19.5090 -19.4700  -9.2410  -7.4826  -7.1784  -4.0056  -3.6072  -3.0269
    -2.8859  -1.8446  -1.4963  -0.5173   1.1259   2.8423   3.1164   3.1521
     3.5528

          k =-0.5000-0.2887 0.0000 (  5552 PWs)   bands (ev):

   -55.3675 -55.3452 -31.9844 -31.9100 -31.6812 -31.6359 -31.5708 -31.5297
   -19.3289 -19.2889  -8.4488  -7.2633  -7.0979  -5.0363  -4.5965  -3.1873
    -3.0380  -2.5571  -1.2366  -0.5500   0.2826   3.6904   4.1427   4.5130
     4.5460

          k =-0.5000-0.0000 0.0000 (  5528 PWs)   bands (ev):

   -55.3676 -55.3451 -31.8958 -31.8627 -31.7466 -31.6352 -31.6293 -31.5490
   -19.3271 -19.2880  -8.3990  -7.2459  -7.2072  -4.4367  -4.4003  -3.4828
    -3.4366  -2.3341  -1.7008  -1.2633   2.2969   2.4342   3.7646   4.1499
     4.2591

          k =-0.5000-0.8660 0.0000 (  5552 PWs)   bands (ev):

   -55.3675 -55.3452 -31.9848 -31.9121 -31.6801 -31.6350 -31.5716 -31.5288
   -19.3286 -19.2896  -8.4478  -7.2631  -7.0980  -5.0357  -4.5962  -3.1841
    -3.0283  -2.5583  -1.2442  -0.5532   0.2775   3.6925   4.1426   4.5114
     4.5465

     the Fermi energy is     2.3222 ev

!    total energy              =    -471.89934972 Ry
     total all-electron energy =     -3795.203039 Ry
     estimated scf accuracy    <          6.0E-11 Ry
     smearing contrib. (-TS)   =      -0.00534969 Ry
     internal energy E=F+TS    =    -471.89400003 Ry

     The total energy is F=E-TS. E is the sum of the following terms:
     one-electron contribution =   -3269.11200014 Ry
     hartree contribution      =    1640.60212307 Ry
     xc contribution           =     -58.25952085 Ry
     ewald contribution        =    1370.86152571 Ry
     one-center paw contrib.   =    -155.98612781 Ry

     convergence has been achieved in  15 iterations

     negative rho (up, down):  7.753E-04 0.000E+00

     Forces acting on atoms (cartesian axes, Ry/au):

     atom    1 type  1   force =    -0.00126398    0.00024483   -0.00041436
     atom    2 type  1   force =    -0.00065330    0.00001927   -0.00219210
     atom    3 type  2   force =    -0.00075507    0.00115600   -0.00071733
     atom    4 type  3   force =     0.00029293    0.00014350    0.00094785
     atom    5 type  3   force =     0.00109104   -0.00097307   -0.00006485
     atom    6 type  4   force =     0.00074103   -0.00011377    0.00103532
     atom    7 type  4   force =     0.00054736   -0.00047676    0.00140548

     Total force =     0.004095     Total SCF correction =     0.000028
     Energy error            =      3.8E-05 Ry
     Gradient error          =      2.2E-03 Ry/Bohr

     number of scf cycles    =  49
     number of bfgs steps    =  48

     energy             old  =    -471.8993113408 Ry
     energy             new  =    -471.8993497250 Ry

     CASE: energy            _new < energy            _old

     new trust radius        =       0.0179349152 bohr
     new conv_thr            =            1.0E-10 Ry


ATOMIC_POSITIONS (angstrom)
Ti              -0.3094635055        1.7616170894        3.1262212701
Ti               1.2163521942        0.8788342439        5.4413018687
C                2.7395022175       -0.0009075024        4.2844865629
O               -0.3099915222        1.7582442145        6.7063486590
O                1.2096618096        0.8877927537        1.8552163510
H                1.1962773691        0.8895381318        0.8788794480
H               -0.3229885628        1.7709410692        7.6810258404



     Writing config-only to output data dir ./tmp/ti2coh2.save/ :
     XML data file
     NEW-OLD atomic charge density approx. for the potential

     Check: negative core charge=   -0.000005

     negative rho (up, down):  7.756E-04 0.000E+00

     total cpu time spent up to now is      921.0 secs

     Self-consistent Calculation

     iteration #  1     ecut=    40.00 Ry     beta= 0.70
     Davidson diagonalization with overlap
     ethr =  1.00E-06,  avg # of iterations =  3.8

     Threshold (ethr) on eigenvalues was too large:
     Diagonalizing with lowered threshold

     Davidson diagonalization with overlap
     ethr =  5.24E-08,  avg # of iterations =  4.2

     negative rho (up, down):  7.770E-04 0.000E+00

     total cpu time spent up to now is      923.1 secs

     total energy              =    -471.89936419 Ry
     estimated scf accuracy    <       0.00002089 Ry

     iteration #  2     ecut=    40.00 Ry     beta= 0.70
     Davidson diagonalization with overlap
     ethr =  4.97E-08,  avg # of iterations =  4.5

     negative rho (up, down):  7.791E-04 0.000E+00

     total cpu time spent up to now is      924.2 secs

     total energy              =    -471.89935124 Ry
     estimated scf accuracy    <       0.00012553 Ry

     iteration #  3     ecut=    40.00 Ry     beta= 0.70
     Davidson diagonalization with overlap
     ethr =  4.97E-08,  avg # of iterations =  7.0

     negative rho (up, down):  7.788E-04 0.000E+00

     total cpu time spent up to now is      925.2 secs

     total energy              =    -471.89935410 Ry
     estimated scf accuracy    <       0.00038209 Ry

     iteration #  4     ecut=    40.00 Ry     beta= 0.70
     Davidson diagonalization with overlap
     ethr =  4.97E-08,  avg # of iterations =  7.5

     negative rho (up, down):  7.823E-04 0.000E+00

     total cpu time spent up to now is      926.1 secs

     total energy              =    -471.89936168 Ry
     estimated scf accuracy    <       0.00026345 Ry

     iteration #  5     ecut=    40.00 Ry     beta= 0.70
     Davidson diagonalization with overlap
     ethr =  4.97E-08,  avg # of iterations =  3.6

     negative rho (up, down):  7.802E-04 0.000E+00

     total cpu time spent up to now is      927.0 secs

     total energy              =    -471.89937479 Ry
     estimated scf accuracy    <       0.00000421 Ry

     iteration #  6     ecut=    40.00 Ry     beta= 0.70
     Davidson diagonalization with overlap
     ethr =  1.00E-08,  avg # of iterations =  7.1

     negative rho (up, down):  7.762E-04 0.000E+00

     total cpu time spent up to now is      927.9 secs

     total energy              =    -471.89937771 Ry
     estimated scf accuracy    <       0.00000385 Ry

     iteration #  7     ecut=    40.00 Ry     beta= 0.70
     Davidson diagonalization with overlap
     ethr =  9.17E-09,  avg # of iterations =  1.2

     negative rho (up, down):  7.758E-04 0.000E+00

     total cpu time spent up to now is      928.6 secs

     total energy              =    -471.89937828 Ry
     estimated scf accuracy    <       0.00000111 Ry

     iteration #  8     ecut=    40.00 Ry     beta= 0.70
     Davidson diagonalization with overlap
     ethr =  2.64E-09,  avg # of iterations =  2.0

     negative rho (up, down):  7.760E-04 0.000E+00

     total cpu time spent up to now is      929.5 secs

     total energy              =    -471.89937835 Ry
     estimated scf accuracy    <       0.00000026 Ry

     iteration #  9     ecut=    40.00 Ry     beta= 0.70
     Davidson diagonalization with overlap
     ethr =  6.09E-10,  avg # of iterations =  4.0

     negative rho (up, down):  7.760E-04 0.000E+00

     total cpu time spent up to now is      930.3 secs

     total energy              =    -471.89937839 Ry
     estimated scf accuracy    <          6.2E-09 Ry

     iteration # 10     ecut=    40.00 Ry     beta= 0.70
     Davidson diagonalization with overlap
     ethr =  1.47E-11,  avg # of iterations = 11.1

     negative rho (up, down):  7.760E-04 0.000E+00

     total cpu time spent up to now is      931.7 secs

     total energy              =    -471.89937840 Ry
     estimated scf accuracy    <       0.00000007 Ry

     iteration # 11     ecut=    40.00 Ry     beta= 0.70
     Davidson diagonalization with overlap
     ethr =  1.47E-11,  avg # of iterations =  4.5

     negative rho (up, down):  7.760E-04 0.000E+00

     total cpu time spent up to now is      932.6 secs

     total energy              =    -471.89937840 Ry
     estimated scf accuracy    <       0.00000001 Ry

     iteration # 12     ecut=    40.00 Ry     beta= 0.70
     Davidson diagonalization with overlap
     ethr =  1.47E-11,  avg # of iterations =  2.8

     negative rho (up, down):  7.760E-04 0.000E+00

     total cpu time spent up to now is      933.4 secs

     total energy              =    -471.89937840 Ry
     estimated scf accuracy    <          1.7E-09 Ry

     iteration # 13     ecut=    40.00 Ry     beta= 0.70
     Davidson diagonalization with overlap
     ethr =  3.98E-12,  avg # of iterations =  5.9

     negative rho (up, down):  7.760E-04 0.000E+00

     total cpu time spent up to now is      934.4 secs

     total energy              =    -471.89937840 Ry
     estimated scf accuracy    <          1.2E-10 Ry

     iteration # 14     ecut=    40.00 Ry     beta= 0.70
     Davidson diagonalization with overlap
     ethr =  2.88E-13,  avg # of iterations =  7.1

     negative rho (up, down):  7.761E-04 0.000E+00

     total cpu time spent up to now is      935.5 secs

     total energy              =    -471.89937840 Ry
     estimated scf accuracy    <          2.1E-10 Ry

     iteration # 15     ecut=    40.00 Ry     beta= 0.70
     Davidson diagonalization with overlap
     ethr =  2.88E-13,  avg # of iterations =  1.5

     negative rho (up, down):  7.761E-04 0.000E+00

     total cpu time spent up to now is      936.2 secs

     End of self-consistent calculation

          k = 0.0000 0.0000 0.0000 (  5509 PWs)   bands (ev):

   -55.4419 -55.3747 -31.9424 -31.5783 -31.5159 -31.5149 -31.4695 -31.4694
   -19.6904 -19.6454  -9.9962  -7.8382  -6.8446  -3.0645  -3.0590  -2.7491
    -2.7425  -2.1083  -0.0527  -0.0511   1.9388   2.2115   2.2162   2.2926
     2.4076

          k = 0.0000 0.2887 0.0000 (  5504 PWs)   bands (ev):

   -55.4072 -55.3570 -31.8794 -31.7643 -31.6502 -31.5778 -31.5390 -31.4959
   -19.5029 -19.4647  -9.2424  -7.4800  -7.1701  -4.0011  -3.6048  -3.0285
    -2.8946  -1.8468  -1.4928  -0.5154   1.1274   2.8444   3.1155   3.1483
     3.5567

          k = 0.0000-0.5773 0.0000 (  5552 PWs)   bands (ev):

   -55.3667 -55.3447 -31.9844 -31.9105 -31.6792 -31.6345 -31.5712 -31.5280
   -19.3225 -19.2838  -8.4506  -7.2616  -7.0896  -5.0266  -4.5950  -3.1865
    -3.0366  -2.5664  -1.2400  -0.5528   0.2801   3.6980   4.1414   4.5157
     4.5475

          k = 0.2500 0.1443 0.0000 (  5504 PWs)   bands (ev):

   -55.4072 -55.3569 -31.8793 -31.7642 -31.6502 -31.5782 -31.5389 -31.4961
   -19.5029 -19.4647  -9.2412  -7.4790  -7.1738  -4.0026  -3.6041  -3.0244
    -2.8909  -1.8458  -1.4929  -0.5167   1.1278   2.8414   3.1149   3.1502
     3.5551

          k = 0.2500 0.4330 0.0000 (  5528 PWs)   bands (ev):

   -55.3669 -55.3446 -31.8955 -31.8626 -31.7452 -31.6340 -31.6284 -31.5488
   -19.3209 -19.2825  -8.3997  -7.2397  -7.2044  -4.4312  -4.4015  -3.4745
    -3.4403  -2.3446  -1.7004  -1.2596   2.2934   2.4364   3.7654   4.1532
     4.2648

          k = 0.2500-0.4330 0.0000 (  5528 PWs)   bands (ev):

   -55.3669 -55.3445 -31.8955 -31.8623 -31.7458 -31.6341 -31.6284 -31.5484
   -19.3208 -19.2828  -8.3998  -7.2406  -7.2035  -4.4321  -4.4002  -3.4765
    -3.4374  -2.3404  -1.7007  -1.2613   2.2938   2.4356   3.7639   4.1514
     4.2624

          k = 0.2500-0.1443 0.0000 (  5504 PWs)   bands (ev):

   -55.4072 -55.3569 -31.8792 -31.7641 -31.6503 -31.5784 -31.5389 -31.4962
   -19.5028 -19.4648  -9.2408  -7.4787  -7.1752  -4.0028  -3.6043  -3.0232
    -2.8866  -1.8444  -1.4952  -0.5169   1.1267   2.8410   3.1150   3.1515
     3.5533

          k =-0.5000-0.2887 0.0000 (  5552 PWs)   bands (ev):

   -55.3668 -55.3446 -31.9842 -31.9105 -31.6798 -31.6348 -31.5706 -31.5283
   -19.3225 -19.2839  -8.4488  -7.2590  -7.0936  -5.0331  -4.5942  -3.1822
    -3.0329  -2.5586  -1.2400  -0.5530   0.2798   3.6949   4.1424   4.5134
     4.5472

          k =-0.5000-0.0000 0.0000 (  5528 PWs)   bands (ev):

   -55.3670 -55.3444 -31.8955 -31.8621 -31.7464 -31.6344 -31.6284 -31.5481
   -19.3208 -19.2828  -8.3997  -7.2409  -7.2037  -4.4318  -4.4001  -3.4782
    -3.4354  -2.3327  -1.7013  -1.2637   2.2955   2.4338   3.7643   4.1490
     4.2597

          k =-0.5000-0.8660 0.0000 (  5552 PWs)   bands (ev):

   -55.3670 -55.3444 -31.9841 -31.9106 -31.6804 -31.6350 -31.5701 -31.5285
   -19.3223 -19.2843  -8.4483  -7.2587  -7.0946  -5.0340  -4.5942  -3.1809
    -3.0286  -2.5551  -1.2410  -0.5521   0.2774   3.6914   4.1435   4.5115
     4.5471

     the Fermi energy is     2.3215 ev

!    total energy              =    -471.89937840 Ry
     total all-electron energy =     -3795.203067 Ry
     estimated scf accuracy    <          4.4E-11 Ry
     smearing contrib. (-TS)   =      -0.00533949 Ry
     internal energy E=F+TS    =    -471.89403891 Ry

     The total energy is F=E-TS. E is the sum of the following terms:
     one-electron contribution =   -3269.34868694 Ry
     hartree contribution      =    1640.72230302 Ry
     xc contribution           =     -58.25878743 Ry
     ewald contribution        =    1370.97729417 Ry
     one-center paw contrib.   =    -155.98616172 Ry

     convergence has been achieved in  15 iterations

     negative rho (up, down):  7.761E-04 0.000E+00

     Forces acting on atoms (cartesian axes, Ry/au):

     atom    1 type  1   force =    -0.00041730   -0.00000562   -0.00060382
     atom    2 type  1   force =    -0.00067902    0.00004022   -0.00149530
     atom    3 type  2   force =    -0.00046270    0.00112056   -0.00085413
     atom    4 type  3   force =     0.00011729    0.00034385    0.00126525
     atom    5 type  3   force =     0.00054492   -0.00099323   -0.00158784
     atom    6 type  4   force =     0.00049073   -0.00014250    0.00250231
     atom    7 type  4   force =     0.00040608   -0.00036328    0.00077354

     Total force =     0.004289     Total SCF correction =     0.000035
     Energy error            =      2.9E-05 Ry
     Gradient error          =      2.5E-03 Ry/Bohr

     number of scf cycles    =  50
     number of bfgs steps    =  49

     energy             old  =    -471.8993497250 Ry
     energy             new  =    -471.8993784027 Ry

     CASE: energy            _new < energy            _old

     new trust radius        =       0.0189691426 bohr
     new conv_thr            =            1.0E-10 Ry


ATOMIC_POSITIONS (angstrom)
Ti              -0.3137705972        1.7624214470        3.1257294008
Ti               1.2134864937        0.8798488390        5.4398877979
C                2.7359804715        0.0005116867        4.2835715381
O               -0.3119027739        1.7588567388        6.7072412797
O                1.2099933055        0.8869083544        1.8556363768
H                1.2058442854        0.8925704561        0.8790827415
H               -0.3202811849        1.7649424780        7.6823308652



     Writing config-only to output data dir ./tmp/ti2coh2.save/ :
     XML data file
     NEW-OLD atomic charge density approx. for the potential

     Check: negative core charge=   -0.000005

     negative rho (up, down):  7.762E-04 0.000E+00

     total cpu time spent up to now is      936.9 secs

     Self-consistent Calculation

     iteration #  1     ecut=    40.00 Ry     beta= 0.70
     Davidson diagonalization with overlap
     ethr =  1.00E-06,  avg # of iterations =  3.9

     Threshold (ethr) on eigenvalues was too large:
     Diagonalizing with lowered threshold

     Davidson diagonalization with overlap
     ethr =  6.35E-08,  avg # of iterations =  4.5

     negative rho (up, down):  7.781E-04 0.000E+00

     total cpu time spent up to now is      939.1 secs

     total energy              =    -471.89938845 Ry
     estimated scf accuracy    <       0.00002557 Ry

     iteration #  2     ecut=    40.00 Ry     beta= 0.70
     Davidson diagonalization with overlap
     ethr =  6.09E-08,  avg # of iterations =  4.1

     negative rho (up, down):  7.790E-04 0.000E+00

     total cpu time spent up to now is      940.1 secs

     total energy              =    -471.89938102 Ry
     estimated scf accuracy    <       0.00008938 Ry

     iteration #  3     ecut=    40.00 Ry     beta= 0.70
     Davidson diagonalization with overlap
     ethr =  6.09E-08,  avg # of iterations =  4.9

     negative rho (up, down):  7.833E-04 0.000E+00

     total cpu time spent up to now is      941.1 secs

     total energy              =    -471.89938537 Ry
     estimated scf accuracy    <       0.00017064 Ry

     iteration #  4     ecut=    40.00 Ry     beta= 0.70
     Davidson diagonalization with overlap
     ethr =  6.09E-08,  avg # of iterations =  2.6

     negative rho (up, down):  7.818E-04 0.000E+00

     total cpu time spent up to now is      942.1 secs

     total energy              =    -471.89939291 Ry
     estimated scf accuracy    <       0.00011248 Ry

     iteration #  5     ecut=    40.00 Ry     beta= 0.70
     Davidson diagonalization with overlap
     ethr =  6.09E-08,  avg # of iterations =  1.9

     negative rho (up, down):  7.826E-04 0.000E+00

     total cpu time spent up to now is      942.9 secs

     total energy              =    -471.89939826 Ry
     estimated scf accuracy    <       0.00005032 Ry

     iteration #  6     ecut=    40.00 Ry     beta= 0.70
     Davidson diagonalization with overlap
     ethr =  6.09E-08,  avg # of iterations =  1.3

     negative rho (up, down):  7.755E-04 0.000E+00

     total cpu time spent up to now is      943.7 secs

     total energy              =    -471.89940432 Ry
     estimated scf accuracy    <       0.00000108 Ry

     iteration #  7     ecut=    40.00 Ry     beta= 0.70
     Davidson diagonalization with overlap
     ethr =  2.56E-09,  avg # of iterations =  6.6

     negative rho (up, down):  7.754E-04 0.000E+00

     total cpu time spent up to now is      944.8 secs

     total energy              =    -471.89940478 Ry
     estimated scf accuracy    <       0.00000123 Ry

     iteration #  8     ecut=    40.00 Ry     beta= 0.70
     Davidson diagonalization with overlap
     ethr =  2.56E-09,  avg # of iterations =  2.0

     negative rho (up, down):  7.756E-04 0.000E+00

     total cpu time spent up to now is      945.7 secs

     total energy              =    -471.89940482 Ry
     estimated scf accuracy    <       0.00000037 Ry

     iteration #  9     ecut=    40.00 Ry     beta= 0.70
     Davidson diagonalization with overlap
     ethr =  8.70E-10,  avg # of iterations =  3.9

     negative rho (up, down):  7.758E-04 0.000E+00

     total cpu time spent up to now is      949.0 secs

     total energy              =    -471.89940486 Ry
     estimated scf accuracy    <       0.00000001 Ry

     iteration # 10     ecut=    40.00 Ry     beta= 0.70
     Davidson diagonalization with overlap
     ethr =  3.18E-11,  avg # of iterations = 10.4

     negative rho (up, down):  7.758E-04 0.000E+00

     total cpu time spent up to now is      950.5 secs

     total energy              =    -471.89940487 Ry
     estimated scf accuracy    <       0.00000015 Ry

     iteration # 11     ecut=    40.00 Ry     beta= 0.70
     Davidson diagonalization with overlap
     ethr =  3.18E-11,  avg # of iterations =  5.0

     negative rho (up, down):  7.758E-04 0.000E+00

     total cpu time spent up to now is      951.5 secs

     total energy              =    -471.89940487 Ry
     estimated scf accuracy    <          7.7E-09 Ry

     iteration # 12     ecut=    40.00 Ry     beta= 0.70
     Davidson diagonalization with overlap
     ethr =  1.82E-11,  avg # of iterations =  3.4

     negative rho (up, down):  7.758E-04 0.000E+00

     total cpu time spent up to now is      952.4 secs

     total energy              =    -471.89940487 Ry
     estimated scf accuracy    <          7.3E-10 Ry

     iteration # 13     ecut=    40.00 Ry     beta= 0.70
     Davidson diagonalization with overlap
     ethr =  1.73E-12,  avg # of iterations =  7.5

     negative rho (up, down):  7.758E-04 0.000E+00

     total cpu time spent up to now is      953.6 secs

     total energy              =    -471.89940487 Ry
     estimated scf accuracy    <          1.5E-09 Ry

     iteration # 14     ecut=    40.00 Ry     beta= 0.70
     Davidson diagonalization with overlap
     ethr =  1.73E-12,  avg # of iterations =  1.1

     negative rho (up, down):  7.758E-04 0.000E+00

     total cpu time spent up to now is      954.4 secs

     total energy              =    -471.89940487 Ry
     estimated scf accuracy    <          5.8E-10 Ry

     iteration # 15     ecut=    40.00 Ry     beta= 0.70
     Davidson diagonalization with overlap
     ethr =  1.38E-12,  avg # of iterations =  1.0

     negative rho (up, down):  7.758E-04 0.000E+00

     total cpu time spent up to now is      955.1 secs

     total energy              =    -471.89940487 Ry
     estimated scf accuracy    <          3.1E-10 Ry

     iteration # 16     ecut=    40.00 Ry     beta= 0.70
     Davidson diagonalization with overlap
     ethr =  7.34E-13,  avg # of iterations =  2.2

     negative rho (up, down):  7.758E-04 0.000E+00

     total cpu time spent up to now is      956.0 secs

     End of self-consistent calculation

          k = 0.0000 0.0000 0.0000 (  5509 PWs)   bands (ev):

   -55.4405 -55.3730 -31.9412 -31.5765 -31.5147 -31.5129 -31.4681 -31.4673
   -19.6787 -19.6453  -9.9947  -7.8333  -6.8406  -3.0580  -3.0531  -2.7427
    -2.7383  -2.1097  -0.0544  -0.0519   1.9405   2.2123   2.2160   2.2934
     2.4089

          k = 0.0000 0.2887 0.0000 (  5504 PWs)   bands (ev):

   -55.4057 -55.3553 -31.8783 -31.7627 -31.6482 -31.5764 -31.5372 -31.4943
   -19.4893 -19.4663  -9.2406  -7.4744  -7.1674  -3.9961  -3.5994  -3.0209
    -2.8896  -1.8471  -1.4915  -0.5167   1.1288   2.8434   3.1159   3.1488
     3.5590

          k = 0.0000-0.5773 0.0000 (  5552 PWs)   bands (ev):

   -55.3652 -55.3431 -31.9828 -31.9089 -31.6776 -31.6331 -31.5694 -31.5264
   -19.3084 -19.2856  -8.4494  -7.2547  -7.0873  -5.0256  -4.5897  -3.1795
    -3.0315  -2.5622  -1.2380  -0.5535   0.2815   3.7016   4.1425   4.5169
     4.5493

          k = 0.2500 0.1443 0.0000 (  5504 PWs)   bands (ev):

   -55.4057 -55.3553 -31.8782 -31.7631 -31.6488 -31.5761 -31.5373 -31.4939
   -19.4893 -19.4664  -9.2401  -7.4737  -7.1691  -3.9964  -3.5999  -3.0159
    -2.8851  -1.8466  -1.4960  -0.5191   1.1260   2.8438   3.1159   3.1512
     3.5575

          k = 0.2500 0.4330 0.0000 (  5528 PWs)   bands (ev):

   -55.3653 -55.3430 -31.8945 -31.8614 -31.7438 -31.6317 -31.6260 -31.5475
   -19.3068 -19.2845  -8.3991  -7.2299  -7.2041  -4.4186  -4.4037  -3.4651
    -3.4392  -2.3427  -1.7004  -1.2598   2.2919   2.4353   3.7681   4.1541
     4.2660

          k = 0.2500-0.4330 0.0000 (  5528 PWs)   bands (ev):

   -55.3654 -55.3428 -31.8936 -31.8604 -31.7444 -31.6331 -31.6273 -31.5461
   -19.3068 -19.2845  -8.3998  -7.2303  -7.2039  -4.4194  -4.4038  -3.4658
    -3.4388  -2.3381  -1.7002  -1.2591   2.2936   2.4376   3.7651   4.1527
     4.2659

          k = 0.2500-0.1443 0.0000 (  5504 PWs)   bands (ev):

   -55.4057 -55.3552 -31.8781 -31.7621 -31.6481 -31.5773 -31.5369 -31.4948
   -19.4892 -19.4663  -9.2399  -7.4736  -7.1704  -3.9966  -3.5995  -3.0163
    -2.8860  -1.8441  -1.4939  -0.5160   1.1280   2.8414   3.1154   3.1511
     3.5555

          k =-0.5000-0.2887 0.0000 (  5552 PWs)   bands (ev):

   -55.3652 -55.3430 -31.9830 -31.9100 -31.6773 -31.6327 -31.5696 -31.5260
   -19.3085 -19.2859  -8.4485  -7.2535  -7.0883  -5.0263  -4.5900  -3.1742
    -3.0268  -2.5605  -1.2424  -0.5550   0.2777   3.7010   4.1430   4.5150
     4.5495

          k =-0.5000-0.0000 0.0000 (  5528 PWs)   bands (ev):

   -55.3654 -55.3428 -31.8942 -31.8606 -31.7450 -31.6324 -31.6266 -31.5464
   -19.3068 -19.2847  -8.3995  -7.2303  -7.2036  -4.4189  -4.4032  -3.4669
    -3.4362  -2.3339  -1.7007  -1.2623   2.2934   2.4347   3.7649   4.1503
     4.2623

          k =-0.5000-0.8660 0.0000 (  5552 PWs)   bands (ev):

   -55.3655 -55.3427 -31.9824 -31.9082 -31.6795 -31.6339 -31.5679 -31.5270
   -19.3084 -19.2859  -8.4485  -7.2531  -7.0902  -5.0285  -4.5902  -3.1750
    -3.0276  -2.5533  -1.2377  -0.5508   0.2781   3.6932   4.1449   4.5132
     4.5489

     the Fermi energy is     2.3213 ev

!    total energy              =    -471.89940487 Ry
     total all-electron energy =     -3795.203094 Ry
     estimated scf accuracy    <          4.5E-12 Ry
     smearing contrib. (-TS)   =      -0.00532843 Ry
     internal energy E=F+TS    =    -471.89407645 Ry

     The total energy is F=E-TS. E is the sum of the following terms:
     one-electron contribution =   -3269.40738412 Ry
     hartree contribution      =    1640.75568253 Ry
     xc contribution           =     -58.25846434 Ry
     ewald contribution        =    1371.00226708 Ry
     one-center paw contrib.   =    -155.98617760 Ry

     convergence has been achieved in  16 iterations

     negative rho (up, down):  7.758E-04 0.000E+00

     Forces acting on atoms (cartesian axes, Ry/au):

     atom    1 type  1   force =     0.00037781   -0.00011168   -0.00056938
     atom    2 type  1   force =    -0.00059740    0.00015264   -0.00020012
     atom    3 type  2   force =    -0.00022420    0.00069292   -0.00072003
     atom    4 type  3   force =    -0.00003222    0.00027623    0.00093087
     atom    5 type  3   force =     0.00005440   -0.00060481   -0.00219306
     atom    6 type  4   force =     0.00018481   -0.00023395    0.00268203
     atom    7 type  4   force =     0.00023680   -0.00017135    0.00006969

     Total force =     0.003930     Total SCF correction =     0.000008
     Energy error            =      2.6E-05 Ry
     Gradient error          =      2.7E-03 Ry/Bohr

     number of scf cycles    =  51
     number of bfgs steps    =  50

     energy             old  =    -471.8993784027 Ry
     energy             new  =    -471.8994048729 Ry

     CASE: energy            _new < energy            _old

     new trust radius        =       0.0080348805 bohr
     new conv_thr            =            1.0E-10 Ry


ATOMIC_POSITIONS (angstrom)
Ti              -0.3152069026        1.7621524197        3.1249281357
Ti               1.2118273209        0.8810401557        5.4391214234
C                2.7344374154        0.0015392981        4.2823699366
O               -0.3129845886        1.7607840270        6.7082904676
O                1.2100215675        0.8845418523        1.8555232844
H                1.2098284391        0.8939157679        0.8797113129
H               -0.3185732515        1.7620864794        7.6835354394



     Writing config-only to output data dir ./tmp/ti2coh2.save/ :
     XML data file
     NEW-OLD atomic charge density approx. for the potential

     Check: negative core charge=   -0.000005

     negative rho (up, down):  7.756E-04 0.000E+00

     total cpu time spent up to now is      956.6 secs

     Self-consistent Calculation

     iteration #  1     ecut=    40.00 Ry     beta= 0.70
     Davidson diagonalization with overlap
     ethr =  1.00E-06,  avg # of iterations =  3.0

     Threshold (ethr) on eigenvalues was too large:
     Diagonalizing with lowered threshold

     Davidson diagonalization with overlap
     ethr =  2.43E-08,  avg # of iterations =  5.2

     negative rho (up, down):  7.757E-04 0.000E+00

     total cpu time spent up to now is      958.8 secs

     total energy              =    -471.89940943 Ry
     estimated scf accuracy    <       0.00001345 Ry

     iteration #  2     ecut=    40.00 Ry     beta= 0.70
     Davidson diagonalization with overlap
     ethr =  3.20E-08,  avg # of iterations =  7.2

     negative rho (up, down):  7.787E-04 0.000E+00

     total cpu time spent up to now is      959.9 secs

     total energy              =    -471.89939024 Ry
     estimated scf accuracy    <       0.00024390 Ry

     iteration #  3     ecut=    40.00 Ry     beta= 0.70
     Davidson diagonalization with overlap
     ethr =  3.20E-08,  avg # of iterations =  7.4

     negative rho (up, down):  7.790E-04 0.000E+00

     total cpu time spent up to now is      960.9 secs

     total energy              =    -471.89940143 Ry
     estimated scf accuracy    <       0.00023764 Ry

     iteration #  4     ecut=    40.00 Ry     beta= 0.70
     Davidson diagonalization with overlap
     ethr =  3.20E-08,  avg # of iterations =  4.8

     negative rho (up, down):  7.756E-04 0.000E+00

     total cpu time spent up to now is      961.8 secs

     total energy              =    -471.89941091 Ry
     estimated scf accuracy    <       0.00004017 Ry

     iteration #  5     ecut=    40.00 Ry     beta= 0.70
     Davidson diagonalization with overlap
     ethr =  3.20E-08,  avg # of iterations =  2.2

     negative rho (up, down):  7.764E-04 0.000E+00

     total cpu time spent up to now is      962.7 secs

     total energy              =    -471.89941241 Ry
     estimated scf accuracy    <       0.00004746 Ry

     iteration #  6     ecut=    40.00 Ry     beta= 0.70
     Davidson diagonalization with overlap
     ethr =  3.20E-08,  avg # of iterations =  1.8

     negative rho (up, down):  7.751E-04 0.000E+00

     total cpu time spent up to now is      963.5 secs

     total energy              =    -471.89941611 Ry
     estimated scf accuracy    <       0.00000045 Ry

     iteration #  7     ecut=    40.00 Ry     beta= 0.70
     Davidson diagonalization with overlap
     ethr =  1.07E-09,  avg # of iterations =  7.8

     negative rho (up, down):  7.750E-04 0.000E+00

     total cpu time spent up to now is      964.7 secs

     total energy              =    -471.89941645 Ry
     estimated scf accuracy    <       0.00000084 Ry

     iteration #  8     ecut=    40.00 Ry     beta= 0.70
     Davidson diagonalization with overlap
     ethr =  1.07E-09,  avg # of iterations =  1.7

     negative rho (up, down):  7.749E-04 0.000E+00

     total cpu time spent up to now is      965.5 secs

     total energy              =    -471.89941645 Ry
     estimated scf accuracy    <       0.00000027 Ry

     iteration #  9     ecut=    40.00 Ry     beta= 0.70
     Davidson diagonalization with overlap
     ethr =  6.47E-10,  avg # of iterations =  2.4

     negative rho (up, down):  7.749E-04 0.000E+00

     total cpu time spent up to now is      966.3 secs

     total energy              =    -471.89941647 Ry
     estimated scf accuracy    <          7.4E-09 Ry

     iteration # 10     ecut=    40.00 Ry     beta= 0.70
     Davidson diagonalization with overlap
     ethr =  1.76E-11,  avg # of iterations = 10.7

     negative rho (up, down):  7.748E-04 0.000E+00

     total cpu time spent up to now is      967.6 secs

     total energy              =    -471.89941648 Ry
     estimated scf accuracy    <       0.00000006 Ry

     iteration # 11     ecut=    40.00 Ry     beta= 0.70
     Davidson diagonalization with overlap
     ethr =  1.76E-11,  avg # of iterations =  3.3

     negative rho (up, down):  7.748E-04 0.000E+00

     total cpu time spent up to now is      968.5 secs

     total energy              =    -471.89941648 Ry
     estimated scf accuracy    <       0.00000001 Ry

     iteration # 12     ecut=    40.00 Ry     beta= 0.70
     Davidson diagonalization with overlap
     ethr =  1.76E-11,  avg # of iterations =  3.1

     negative rho (up, down):  7.748E-04 0.000E+00

     total cpu time spent up to now is      969.4 secs

     total energy              =    -471.89941648 Ry
     estimated scf accuracy    <          1.1E-09 Ry

     iteration # 13     ecut=    40.00 Ry     beta= 0.70
     Davidson diagonalization with overlap
     ethr =  2.54E-12,  avg # of iterations =  7.0

     negative rho (up, down):  7.748E-04 0.000E+00

     total cpu time spent up to now is      970.5 secs

     total energy              =    -471.89941648 Ry
     estimated scf accuracy    <          3.9E-10 Ry

     iteration # 14     ecut=    40.00 Ry     beta= 0.70
     Davidson diagonalization with overlap
     ethr =  9.40E-13,  avg # of iterations =  2.8

     negative rho (up, down):  7.748E-04 0.000E+00

     total cpu time spent up to now is      971.3 secs

     total energy              =    -471.89941648 Ry
     estimated scf accuracy    <          1.7E-10 Ry

     iteration # 15     ecut=    40.00 Ry     beta= 0.70
     Davidson diagonalization with overlap
     ethr =  3.95E-13,  avg # of iterations =  2.4

     negative rho (up, down):  7.748E-04 0.000E+00

     total cpu time spent up to now is      972.2 secs

     End of self-consistent calculation

          k = 0.0000 0.0000 0.0000 (  5509 PWs)   bands (ev):

   -55.4397 -55.3722 -31.9404 -31.5757 -31.5139 -31.5121 -31.4674 -31.4664
   -19.6740 -19.6479  -9.9936  -7.8315  -6.8396  -3.0529  -3.0502  -2.7384
    -2.7356  -2.1100  -0.0539  -0.0519   1.9417   2.2140   2.2161   2.2945
     2.4093

          k = 0.0000 0.2887 0.0000 (  5504 PWs)   bands (ev):

   -55.4049 -55.3545 -31.8774 -31.7617 -31.6473 -31.5759 -31.5363 -31.4937
   -19.4811 -19.4724  -9.2390  -7.4724  -7.1679  -3.9935  -3.5964  -3.0153
    -2.8853  -1.8459  -1.4911  -0.5162   1.1299   2.8426   3.1170   3.1502
     3.5593

          k = 0.0000-0.5773 0.0000 (  5552 PWs)   bands (ev):

   -55.3645 -55.3423 -31.9818 -31.9079 -31.6772 -31.6325 -31.5683 -31.5258
   -19.2994 -19.2927  -8.4477  -7.2517  -7.0881  -5.0261  -4.5868  -3.1742
    -3.0272  -2.5577  -1.2369  -0.5525   0.2820   3.7010   4.1440   4.5165
     4.5501

          k = 0.2500 0.1443 0.0000 (  5504 PWs)   bands (ev):

   -55.4049 -55.3545 -31.8774 -31.7624 -31.6480 -31.5751 -31.5365 -31.4929
   -19.4812 -19.4725  -9.2393  -7.4721  -7.1672  -3.9927  -3.5976  -3.0121
    -2.8824  -1.8460  -1.4967  -0.5183   1.1261   2.8455   3.1176   3.1517
     3.5587

          k = 0.2500 0.4330 0.0000 (  5528 PWs)   bands (ev):

   -55.3646 -55.3422 -31.8937 -31.8604 -31.7432 -31.6309 -31.6251 -31.5466
   -19.2973 -19.2921  -8.3981  -7.2257  -7.2055  -4.4103  -4.4062  -3.4611
    -3.4373  -2.3399  -1.6996  -1.2598   2.2924   2.4355   3.7684   4.1544
     4.2655

          k = 0.2500-0.4330 0.0000 (  5528 PWs)   bands (ev):

   -55.3647 -55.3421 -31.8927 -31.8594 -31.7437 -31.6324 -31.6266 -31.5452
   -19.2972 -19.2921  -8.3988  -7.2258  -7.2056  -4.4108  -4.4068  -3.4613
    -3.4378  -2.3359  -1.6993  -1.2585   2.2943   2.4381   3.7656   4.1534
     4.2662

          k = 0.2500-0.1443 0.0000 (  5504 PWs)   bands (ev):

   -55.4050 -55.3545 -31.8773 -31.7613 -31.6472 -31.5764 -31.5362 -31.4939
   -19.4811 -19.4724  -9.2391  -7.4721  -7.1683  -3.9930  -3.5970  -3.0132
    -2.8844  -1.8438  -1.4936  -0.5149   1.1287   2.8428   3.1170   3.1512
     3.5570

          k =-0.5000-0.2887 0.0000 (  5552 PWs)   bands (ev):

   -55.3644 -55.3423 -31.9821 -31.9093 -31.6763 -31.6318 -31.5689 -31.5250
   -19.2995 -19.2929  -8.4479  -7.2522  -7.0863  -5.0218  -4.5878  -3.1708
    -3.0243  -2.5618  -1.2426  -0.5544   0.2776   3.7028   4.1437   4.5161
     4.5505

          k =-0.5000-0.0000 0.0000 (  5528 PWs)   bands (ev):

   -55.3647 -55.3421 -31.8934 -31.8599 -31.7439 -31.6314 -31.6256 -31.5458
   -19.2973 -19.2922  -8.3985  -7.2256  -7.2052  -4.4100  -4.4065  -3.4607
    -3.4367  -2.3366  -1.6995  -1.2607   2.2927   2.4358   3.7652   4.1523
     4.2636

          k =-0.5000-0.8660 0.0000 (  5552 PWs)   bands (ev):

   -55.3647 -55.3421 -31.9815 -31.9073 -31.6784 -31.6330 -31.5673 -31.5261
   -19.2994 -19.2928  -8.4480  -7.2517  -7.0882  -5.0244  -4.5879  -3.1724
    -3.0260  -2.5547  -1.2370  -0.5500   0.2789   3.6954   4.1455   4.5146
     4.5498

     the Fermi energy is     2.3218 ev

!    total energy              =    -471.89941648 Ry
     total all-electron energy =     -3795.203106 Ry
     estimated scf accuracy    <          8.4E-11 Ry
     smearing contrib. (-TS)   =      -0.00532887 Ry
     internal energy E=F+TS    =    -471.89408761 Ry

     The total energy is F=E-TS. E is the sum of the following terms:
     one-electron contribution =   -3269.10448818 Ry
     hartree contribution      =    1640.60633257 Ry
     xc contribution           =     -58.25857010 Ry
     ewald contribution        =    1370.84879234 Ry
     one-center paw contrib.   =    -155.98615424 Ry

     convergence has been achieved in  15 iterations

     negative rho (up, down):  7.748E-04 0.000E+00

     Forces acting on atoms (cartesian axes, Ry/au):

     atom    1 type  1   force =     0.00052571   -0.00000395   -0.00030790
     atom    2 type  1   force =    -0.00044614    0.00020290    0.00041140
     atom    3 type  2   force =    -0.00010134    0.00026277   -0.00034205
     atom    4 type  3   force =    -0.00007865    0.00004420    0.00040958
     atom    5 type  3   force =    -0.00009191   -0.00016065   -0.00125940
     atom    6 type  4   force =     0.00004530   -0.00030239    0.00135435
     atom    7 type  4   force =     0.00014702   -0.00004288   -0.00026598

     Total force =     0.002190     Total SCF correction =     0.000036
     Energy error            =      1.2E-05 Ry
     Gradient error          =      1.4E-03 Ry/Bohr

     number of scf cycles    =  52
     number of bfgs steps    =  51

     energy             old  =    -471.8994048729 Ry
     energy             new  =    -471.8994164790 Ry

     CASE: energy            _new < energy            _old

     new trust radius        =       0.0027497310 bohr
     new conv_thr            =            1.0E-10 Ry


ATOMIC_POSITIONS (angstrom)
Ti              -0.3149889923        1.7616873476        3.1244295565
Ti               1.2111486923        0.8816680970        5.4392069598
C                2.7341520773        0.0018410519        4.2817545462
O               -0.3133175268        1.7619694792        6.7088176374
O                1.2098265492        0.8831383589        1.8551924135
H                1.2102270551        0.8940275121        0.8800389857
H               -0.3176978548        1.7617281534        7.6840399009



     Writing config-only to output data dir ./tmp/ti2coh2.save/ :
     XML data file
     NEW-OLD atomic charge density approx. for the potential

     Check: negative core charge=   -0.000005

     negative rho (up, down):  7.746E-04 0.000E+00

     total cpu time spent up to now is      972.9 secs

     Self-consistent Calculation

     iteration #  1     ecut=    40.00 Ry     beta= 0.70
     Davidson diagonalization with overlap
     ethr =  1.00E-06,  avg # of iterations =  2.1

     Threshold (ethr) on eigenvalues was too large:
     Diagonalizing with lowered threshold

     Davidson diagonalization with overlap
     ethr =  5.73E-09,  avg # of iterations =  6.2

     negative rho (up, down):  7.734E-04 0.000E+00

     total cpu time spent up to now is      975.1 secs

     total energy              =    -471.89941661 Ry
     estimated scf accuracy    <       0.00000454 Ry

     iteration #  2     ecut=    40.00 Ry     beta= 0.70
     Davidson diagonalization with overlap
     ethr =  1.08E-08,  avg # of iterations =  8.8

     negative rho (up, down):  7.755E-04 0.000E+00

     total cpu time spent up to now is      976.5 secs

     total energy              =    -471.89940157 Ry
     estimated scf accuracy    <       0.00030961 Ry

     iteration #  3     ecut=    40.00 Ry     beta= 0.70
     Davidson diagonalization with overlap
     ethr =  1.08E-08,  avg # of iterations =  7.9

     negative rho (up, down):  7.760E-04 0.000E+00

     total cpu time spent up to now is      977.7 secs

     total energy              =    -471.89941564 Ry
     estimated scf accuracy    <       0.00003690 Ry

     iteration #  4     ecut=    40.00 Ry     beta= 0.70
     Davidson diagonalization with overlap
     ethr =  1.08E-08,  avg # of iterations =  3.4

     negative rho (up, down):  7.744E-04 0.000E+00

     total cpu time spent up to now is      978.6 secs

     total energy              =    -471.89941762 Ry
     estimated scf accuracy    <       0.00001632 Ry

     iteration #  5     ecut=    40.00 Ry     beta= 0.70
     Davidson diagonalization with overlap
     ethr =  1.08E-08,  avg # of iterations =  2.2

     negative rho (up, down):  7.744E-04 0.000E+00

     total cpu time spent up to now is      979.5 secs

     total energy              =    -471.89941868 Ry
     estimated scf accuracy    <       0.00000400 Ry

     iteration #  6     ecut=    40.00 Ry     beta= 0.70
     Davidson diagonalization with overlap
     ethr =  9.51E-09,  avg # of iterations =  1.0

     negative rho (up, down):  7.741E-04 0.000E+00

     total cpu time spent up to now is      980.4 secs

     total energy              =    -471.89941918 Ry
     estimated scf accuracy    <       0.00000016 Ry

     iteration #  7     ecut=    40.00 Ry     beta= 0.70
     Davidson diagonalization with overlap
     ethr =  3.82E-10,  avg # of iterations =  6.7

     negative rho (up, down):  7.741E-04 0.000E+00

     total cpu time spent up to now is      983.9 secs

     total energy              =    -471.89941928 Ry
     estimated scf accuracy    <       0.00000004 Ry

     iteration #  8     ecut=    40.00 Ry     beta= 0.70
     Davidson diagonalization with overlap
     ethr =  1.04E-10,  avg # of iterations =  3.0

     negative rho (up, down):  7.741E-04 0.000E+00

     total cpu time spent up to now is      984.9 secs

     total energy              =    -471.89941929 Ry
     estimated scf accuracy    <          5.1E-09 Ry

     iteration #  9     ecut=    40.00 Ry     beta= 0.70
     Davidson diagonalization with overlap
     ethr =  1.21E-11,  avg # of iterations =  5.6

     negative rho (up, down):  7.741E-04 0.000E+00

     total cpu time spent up to now is      986.2 secs

     total energy              =    -471.89941929 Ry
     estimated scf accuracy    <          7.2E-09 Ry

     iteration # 10     ecut=    40.00 Ry     beta= 0.70
     Davidson diagonalization with overlap
     ethr =  1.21E-11,  avg # of iterations =  2.9

     negative rho (up, down):  7.741E-04 0.000E+00

     total cpu time spent up to now is      987.1 secs

     total energy              =    -471.89941929 Ry
     estimated scf accuracy    <          4.6E-10 Ry

     iteration # 11     ecut=    40.00 Ry     beta= 0.70
     Davidson diagonalization with overlap
     ethr =  1.10E-12,  avg # of iterations =  7.1

     negative rho (up, down):  7.741E-04 0.000E+00

     total cpu time spent up to now is      988.5 secs

     total energy              =    -471.89941929 Ry
     estimated scf accuracy    <          1.8E-09 Ry

     iteration # 12     ecut=    40.00 Ry     beta= 0.70
     Davidson diagonalization with overlap
     ethr =  1.10E-12,  avg # of iterations =  2.1

     negative rho (up, down):  7.741E-04 0.000E+00

     total cpu time spent up to now is      989.4 secs

     total energy              =    -471.89941929 Ry
     estimated scf accuracy    <          6.7E-10 Ry

     iteration # 13     ecut=    40.00 Ry     beta= 0.70
     Davidson diagonalization with overlap
     ethr =  1.10E-12,  avg # of iterations =  5.1

     negative rho (up, down):  7.741E-04 0.000E+00

     total cpu time spent up to now is      990.5 secs

     total energy              =    -471.89941929 Ry
     estimated scf accuracy    <          1.3E-10 Ry

     iteration # 14     ecut=    40.00 Ry     beta= 0.70
     Davidson diagonalization with overlap
     ethr =  3.15E-13,  avg # of iterations =  2.5

     negative rho (up, down):  7.741E-04 0.000E+00

     total cpu time spent up to now is      991.4 secs

     End of self-consistent calculation

          k = 0.0000 0.0000 0.0000 (  5509 PWs)   bands (ev):

   -55.4400 -55.3726 -31.9403 -31.5760 -31.5139 -31.5126 -31.4676 -31.4668
   -19.6757 -19.6501  -9.9935  -7.8325  -6.8409  -3.0516  -3.0504  -2.7377
    -2.7362  -2.1097  -0.0524  -0.0512   1.9416   2.2152   2.2161   2.2949
     2.4089

          k = 0.0000 0.2887 0.0000 (  5504 PWs)   bands (ev):

   -55.4052 -55.3549 -31.8773 -31.7617 -31.6476 -31.5762 -31.5367 -31.4941
   -19.4825 -19.4751  -9.2385  -7.4733  -7.1698  -3.9937  -3.5966  -3.0141
    -2.8847  -1.8447  -1.4911  -0.5149   1.1303   2.8422   3.1177   3.1510
     3.5583

          k = 0.0000-0.5773 0.0000 (  5552 PWs)   bands (ev):

   -55.3648 -55.3426 -31.9818 -31.9079 -31.6777 -31.6328 -31.5683 -31.5263
   -19.3004 -19.2958  -8.4468  -7.2524  -7.0901  -5.0272  -4.5870  -3.1732
    -3.0265  -2.5559  -1.2368  -0.5510   0.2821   3.6984   4.1447   4.5157
     4.5496

          k = 0.2500 0.1443 0.0000 (  5504 PWs)   bands (ev):

   -55.4052 -55.3549 -31.8774 -31.7624 -31.6482 -31.5754 -31.5369 -31.4934
   -19.4825 -19.4751  -9.2391  -7.4733  -7.1679  -3.9925  -3.5979  -3.0126
    -2.8831  -1.8451  -1.4962  -0.5165   1.1267   2.8458   3.1185   3.1517
     3.5582

          k = 0.2500 0.4330 0.0000 (  5528 PWs)   bands (ev):

   -55.3649 -55.3425 -31.8935 -31.8603 -31.7435 -31.6315 -31.6257 -31.5467
   -19.2978 -19.2956  -8.3975  -7.2269  -7.2069  -4.4105  -4.4062  -3.4613
    -3.4372  -2.3385  -1.6989  -1.2599   2.2936   2.4360   3.7670   4.1542
     4.2641

          k = 0.2500-0.4330 0.0000 (  5528 PWs)   bands (ev):

   -55.3650 -55.3424 -31.8928 -31.8596 -31.7438 -31.6325 -31.6268 -31.5457
   -19.2977 -19.2956  -8.3980  -7.2270  -7.2069  -4.4108  -4.4067  -3.4616
    -3.4374  -2.3353  -1.6988  -1.2590   2.2951   2.4377   3.7653   4.1535
     4.2645

          k = 0.2500-0.1443 0.0000 (  5504 PWs)   bands (ev):

   -55.4052 -55.3549 -31.8773 -31.7616 -31.6477 -31.5763 -31.5367 -31.4941
   -19.4825 -19.4751  -9.2389  -7.4732  -7.1690  -3.9928  -3.5974  -3.0132
    -2.8843  -1.8436  -1.4938  -0.5142   1.1286   2.8437   3.1180   3.1514
     3.5571

          k =-0.5000-0.2887 0.0000 (  5552 PWs)   bands (ev):

   -55.3648 -55.3427 -31.9821 -31.9092 -31.6768 -31.6321 -31.5691 -31.5255
   -19.3005 -19.2958  -8.4476  -7.2536  -7.0872  -5.0212  -4.5881  -3.1715
    -3.0250  -2.5623  -1.2421  -0.5528   0.2782   3.7011   4.1441   4.5160
     4.5502

          k =-0.5000-0.0000 0.0000 (  5528 PWs)   bands (ev):

   -55.3649 -55.3425 -31.8935 -31.8602 -31.7438 -31.6316 -31.6258 -31.5464
   -19.2978 -19.2956  -8.3978  -7.2266  -7.2066  -4.4099  -4.4067  -3.4601
    -3.4375  -2.3384  -1.6987  -1.2603   2.2931   2.4361   3.7648   4.1532
     4.2631

          k =-0.5000-0.8660 0.0000 (  5552 PWs)   bands (ev):

   -55.3649 -55.3425 -31.9817 -31.9078 -31.6782 -31.6329 -31.5680 -31.5263
   -19.3005 -19.2958  -8.4475  -7.2531  -7.0888  -5.0236  -4.5881  -3.1724
    -3.0261  -2.5569  -1.2381  -0.5498   0.2793   3.6960   4.1453   4.5149
     4.5497

     the Fermi energy is     2.3223 ev

!    total energy              =    -471.89941929 Ry
     total all-electron energy =     -3795.203108 Ry
     estimated scf accuracy    <          1.9E-11 Ry
     smearing contrib. (-TS)   =      -0.00533541 Ry
     internal energy E=F+TS    =    -471.89408389 Ry

     The total energy is F=E-TS. E is the sum of the following terms:
     one-electron contribution =   -3268.75862890 Ry
     hartree contribution      =    1640.43299030 Ry
     xc contribution           =     -58.25866866 Ry
     ewald contribution        =    1370.67634713 Ry
     one-center paw contrib.   =    -155.98612374 Ry

     convergence has been achieved in  14 iterations

     negative rho (up, down):  7.741E-04 0.000E+00

     Forces acting on atoms (cartesian axes, Ry/au):

     atom    1 type  1   force =     0.00033191    0.00011280   -0.00007939
     atom    2 type  1   force =    -0.00030539    0.00016863    0.00026729
     atom    3 type  2   force =    -0.00004352    0.00010349   -0.00006107
     atom    4 type  3   force =    -0.00008323   -0.00009092    0.00014165
     atom    5 type  3   force =    -0.00003720    0.00003141   -0.00023878
     atom    6 type  4   force =     0.00001954   -0.00031761    0.00021134
     atom    7 type  4   force =     0.00011788   -0.00000781   -0.00024105

     Total force =     0.000807     Total SCF correction =     0.000016
     Energy error            =      2.8E-06 Ry
     Gradient error          =      3.3E-04 Ry/Bohr

     bfgs converged in  53 scf cycles and  52 bfgs steps
     (criteria: energy <  1.0E-04 Ry, force <  1.0E-03 Ry/Bohr)

     End of BFGS Geometry Optimization

     Final energy             =    -471.8994192942 Ry

     File ./tmp/ti2coh2.bfgs deleted, as requested
Begin final coordinates

ATOMIC_POSITIONS (angstrom)
Ti              -0.3149889923        1.7616873476        3.1244295565
Ti               1.2111486923        0.8816680970        5.4392069598
C                2.7341520773        0.0018410519        4.2817545462
O               -0.3133175268        1.7619694792        6.7088176374
O                1.2098265492        0.8831383589        1.8551924135
H                1.2102270551        0.8940275121        0.8800389857
H               -0.3176978548        1.7617281534        7.6840399009
End final coordinates



     Writing all to output data dir ./tmp/ti2coh2.save/ :
     XML data file, charge density, pseudopotentials, collected wavefunctions

     init_run     :      1.00s CPU      1.01s WALL (       1 calls)
     electrons    :    902.34s CPU    956.48s WALL (      53 calls)
     update_pot   :      8.08s CPU      7.69s WALL (      52 calls)
     forces       :     13.86s CPU     13.99s WALL (      53 calls)

     Called by init_run:
     wfcinit      :      0.24s CPU      0.24s WALL (       1 calls)
     potinit      :      0.39s CPU      0.38s WALL (       1 calls)
     hinit0       :      0.26s CPU      0.26s WALL (       1 calls)

     Called by electrons:
     c_bands      :    601.93s CPU    612.71s WALL (     809 calls)
     sum_band     :    114.57s CPU    140.53s WALL (     809 calls)
     v_of_rho     :     15.85s CPU     15.33s WALL (     855 calls)
     newd         :     64.39s CPU     75.36s WALL (     855 calls)
     PAW_pot      :    119.55s CPU    126.21s WALL (     907 calls)
     mix_rho      :      2.37s CPU      2.24s WALL (     809 calls)

     Called by c_bands:
     init_us_2    :      5.46s CPU      5.25s WALL (   17240 calls)
     cegterg      :    588.88s CPU    600.32s WALL (    8099 calls)

     Called by *egterg:
     cdiaghg      :     36.14s CPU     36.42s WALL (   52709 calls)
     h_psi        :    283.08s CPU    294.44s WALL (   53318 calls)
     s_psi        :     44.16s CPU     46.39s WALL (   53318 calls)
     g_psi        :      0.86s CPU      0.81s WALL (   45209 calls)

     Called by h_psi:
     h_psi:calbec :     59.55s CPU     61.33s WALL (   53318 calls)
     vloc_psi     :    178.09s CPU    187.24s WALL (   53318 calls)
                                        0.00s GPU  (   53318 calls)
     add_vuspsi   :     43.98s CPU     44.52s WALL (   53318 calls)

     General routines
     calbec       :     83.60s CPU     84.88s WALL (   64048 calls)
     fft          :     21.39s CPU     20.40s WALL (   11651 calls)
     ffts         :      0.59s CPU      0.57s WALL (    1664 calls)
     fftw         :    191.81s CPU    202.87s WALL ( 1443532 calls)
     interpolate  :      1.23s CPU      1.19s WALL (     855 calls)

     Parallel routines

     PWSCF        :  15m37.81s CPU  16m31.69s WALL


   This run was terminated on:  14:20:31  22Sep2026            

=------------------------------------------------------------------------------=
   JOB DONE.
=------------------------------------------------------------------------------=
